User:   madkru@g043.nifl.fysik.dtu.dk
Date:   Tue Mar 30 06:59:06 2021
Arch:   x86_64
Pid:    39387
Python: 3.8.6
gpaw:   /home/niflheim/madkru/venv_madkru/gpaw/gpaw (e6f0d78a31)
_gpaw:  /home/niflheim/madkru/venv_madkru/gpaw/build/lib.linux-x86_64-sandybridge-3.8/
        _gpaw.cpython-38-x86_64-linux-gnu.so (e6f0d78a31)
ase:    /home/niflheim/madkru/venv_madkru/ase/ase (version 3.22.0b1-4d5a73cb29)
numpy:  /home/modules/software/SciPy-bundle/2020.11-foss-2020b/lib/python3.8/site-packages/numpy (version 1.19.4)
scipy:  /home/modules/software/SciPy-bundle/2020.11-foss-2020b/lib/python3.8/site-packages/scipy (version 1.5.4)
units:  Angstrom and eV
cores: 64
OpenMP: False
OMP_NUM_THREADS: 1

Input parameters:
  convergence: {bands: occupied,
                density: 0.0001,
                eigenstates: 4e-08,
                energy: 0.0005,
                forces: 1e-06}
  kpts: [6 6 4]
  maxiter: 1000
  mode: {ecut: 600.0,
         gammacentered: False,
         name: pw}
  occupations: {fixmagmom: False,
                name: fermi-dirac,
                width: 0.001}
  symmetry: {point_group: False,
             time_reversal: False}

System changes: positions, numbers, cell, pbc, initial_charges, initial_magmoms

Initialize ...

O-setup:
  name: Oxygen
  id: 9b9d51c344dea68c822856295a461509
  Z: 8.0
  valence: 6
  core: 2
  charge: 0.0
  file: /home/modules/software/GPAW-setups/0.9.20000/O.LDA.gz
  compensation charges: gauss, rc=0.21, lmax=2
  cutoffs: 1.17(filt), 0.83(core),
  valence states:
                energy  radius
    2s(2.00)   -23.752   0.688
    2p(4.00)    -9.195   0.598
    *s           3.459   0.688
    *p          18.016   0.598
    *d           0.000   0.619

  Using partial waves for O as LCAO basis

Mn-setup:
  name: Manganese
  id: 0d715a8018be061a6e9ea6f2d364ac92
  Z: 25.0
  valence: 15
  core: 10
  charge: 0.0
  file: /home/modules/software/GPAW-setups/0.9.20000/Mn.LDA.gz
  compensation charges: gauss, rc=0.38, lmax=2
  cutoffs: 2.14(filt), 0.86(core),
  valence states:
                energy  radius
    3s(2.00)   -85.387   1.275
    4s(2.00)    -5.282   1.275
    3p(6.00)   -54.493   1.281
    4p(0.00)    -1.471   1.281
    3d(5.00)    -7.009   1.138
    *d          20.203   1.138

[...]

P-setup:
  name: Phosphorus
  id: a5561c299094968922a179ab894d2e2d
  Z: 15.0
  valence: 5
  core: 10
  charge: 0.0
  file: /home/modules/software/GPAW-setups/0.9.20000/P.LDA.gz
  compensation charges: gauss, rc=0.30, lmax=2
  cutoffs: 1.69(filt), 1.81(core),
  valence states:
                energy  radius
    3s(2.00)   -14.015   0.953
    3p(3.00)    -5.596   0.953
    *s          13.197   0.953
    *p          21.615   0.953
    *d           0.000   0.953

[...]

Li-setup:
  name: Lithium
  id: b73562207f97a71b6967473b66fe8b65
  Z: 3.0
  valence: 1
  core: 2
  charge: 0.0
  file: /home/modules/software/GPAW-setups/0.9.20000/Li.LDA.gz
  compensation charges: gauss, rc=0.33, lmax=2
  cutoffs: 1.91(filt), 2.55(core),
  valence states:
                energy  radius
    2s(1.00)    -2.874   1.058
    2p(0.00)    -1.126   1.058
    *s          24.338   1.058

  Using partial waves for Li as LCAO basis

Reference energy: -196157.275402

Spin-polarized calculation.
Magnetic moment: 0.000000

Convergence criteria:
  Maximum total energy change: 0.0005 eV / electron
  Maximum integral of absolute density change: 0.0001 electrons
  Maximum integral of absolute eigenstate change: 4e-08 eV^2
  Maximum change in atomic force: 1e-06 eV / Ang
  Maximum number of iterations: 1000

Symmetries present (total): 1

  ( 1  0  0)
  ( 0  1  0)
  ( 0  0  1)

144 k-points: 6 x 6 x 4 Monkhorst-Pack grid
144 k-points in the irreducible part of the Brillouin zone
       k-points in crystal coordinates                weights
   0:    -0.41666667   -0.41666667   -0.37500000          1/144
   1:    -0.41666667   -0.41666667   -0.12500000          1/144
   2:    -0.41666667   -0.41666667    0.12500000          1/144
   3:    -0.41666667   -0.41666667    0.37500000          1/144
   4:    -0.41666667   -0.25000000   -0.37500000          1/144
   5:    -0.41666667   -0.25000000   -0.12500000          1/144
   6:    -0.41666667   -0.25000000    0.12500000          1/144
   7:    -0.41666667   -0.25000000    0.37500000          1/144
   8:    -0.41666667   -0.08333333   -0.37500000          1/144
   9:    -0.41666667   -0.08333333   -0.12500000          1/144
          ...
 143:     0.41666667    0.41666667    0.37500000          1/144

Wave functions: Plane wave expansion
  Cutoff energy: 600.000 eV
  Number of coefficients (min, max): 10068, 10125
  Pulay-stress correction: 0.000000 eV/Ang^3 (de/decut=0.000000)
  Using FFTW library
  ScaLapack parameters: grid=1x1, blocksize=None
  Wavefunction extrapolation:
    Improved wavefunction reuse through dual PAW basis

  Fermi-Dirac: width=0.0010 eV

Eigensolver
   Davidson(niter=2)

Densities:
  Coarse grid: 60*35*27 grid
  Fine grid: 120*70*54 grid
  Total Charge: 0.000000

Density mixing:
  Method: difference
  Backend: pulay
  Linear mixing parameter: 0.05
  Mixing with 5 old densities
  Damping of long wave oscillations: 50

Hamiltonian:
  XC and Coulomb potentials evaluated on a 120*70*54 grid
  Using the LDA Exchange-Correlation functional

Total number of cores used: 64
Parallelization over k-points: 16
Domain decomposition: 2 x 2 x 1

Number of atoms: 28
Number of atomic orbitals: 148
Number of bands in calculation: 112
Number of valence electrons: 180
Bands to converge: occupied

... initialized

Initializing position-dependent things.

Density initialized from atomic densities
Creating initial wave functions:
  112 bands from LCAO basis set

    /|         OP              |
   / |O            O        O  |
  /  |       O            O  P |
 *   |O    Mn      O           |
 |   |          OLi          O |
 |   .P-O--------------Mn------.
 |  /          Li    O  Mn  O /
 | /Li O           PO        /
 |/       Mn                /
 *Li-----------------------*

Positions:
   0 O     -1.360678   -2.541161   -1.202221    ( 0.0000,  0.0000,  0.0000)
   1 O     -3.121941    2.976855    1.167242    ( 0.0000,  0.0000,  0.0000)
   2 O      2.107533    0.508090    1.540712    ( 0.0000,  0.0000,  0.0000)
   3 O      3.869373   -0.072395   -0.828750    ( 0.0000,  0.0000,  0.0000)
   4 O      2.107821    2.976875    1.540792    ( 0.0000,  0.0000,  0.0000)
   5 O      3.869084   -2.541141   -0.828671    ( 0.0000,  0.0000,  0.0000)
   6 O     -1.360390   -0.072375   -1.202141    ( 0.0000,  0.0000,  0.0000)
   7 O     -3.122230    0.508109    1.167321    ( 0.0000,  0.0000,  0.0000)
   8 O     -4.413461   -1.306992   -0.794251    ( 0.0000,  0.0000,  0.0000)
   9 O     -0.069585    1.742707    1.575662    ( 0.0000,  0.0000,  0.0000)
  10 O      5.150604    1.742707    1.132822    ( 0.0000,  0.0000,  0.0000)
  11 O      0.816728   -1.306992   -1.237091    ( 0.0000,  0.0000,  0.0000)
  12 Mn    -2.570809   -1.307302    0.247161    ( 0.0000,  0.0000,  1.0000)
  13 Mn    -1.912021    1.743016   -2.122906    ( 0.0000,  0.0000, -1.0000)
  14 Mn     3.317952    1.743017    0.091411    ( 0.0000,  0.0000, -1.0000)
  15 Mn     2.659164   -1.307302    2.461478    ( 0.0000,  0.0000,  1.0000)
  16 P     -0.620664   -1.306816   -1.828465    ( 0.0000,  0.0000,  0.0000)
  17 P     -3.862097    1.742530    0.541238    ( 0.0000,  0.0000,  0.0000)
  18 P      1.367807    1.742530    2.167036    ( 0.0000,  0.0000,  0.0000)
  19 P      4.609240   -1.306816   -0.202666    ( 0.0000,  0.0000,  0.0000)
  20 O     -0.646437   -1.306845    1.374751    ( 0.0000,  0.0000,  0.0000)
  21 O     -3.836504    1.742559   -0.995565    ( 0.0000,  0.0000,  0.0000)
  22 O      1.393580    1.742559   -1.036179    ( 0.0000,  0.0000,  0.0000)
  23 O      4.583647   -1.306845    1.334136    ( 0.0000,  0.0000,  0.0000)
  24 Li    -4.856429   -2.832143   -2.200714    ( 0.0000,  0.0000,  0.0000)
  25 Li     0.373571   -2.832143    0.169286    ( 0.0000,  0.0000,  0.0000)
  26 Li    -4.856429    0.217857   -2.200714    ( 0.0000,  0.0000,  0.0000)
  27 Li     0.373571    0.217857    0.169286    ( 0.0000,  0.0000,  0.0000)

Unit cell:
           periodic     x           y           z      points  spacing
  1. axis:    yes   10.460000    0.000000    0.000000    60     0.1743
  2. axis:    yes    0.000000    6.100000    0.000000    35     0.1743
  3. axis:    yes    0.000000    0.000000    4.740000    27     0.1756

  Lengths:  10.460000   6.100000   4.740000
  Angles:   90.000000  90.000000  90.000000

Effective grid spacing dv^(1/3) = 0.1747

                     log10-error:           total        iterations:
           time      wfs    density  force  energy       poisson  magmom
iter:   1  07:00:41                       -231.917038             +0.0000
iter:   2  07:01:02  -0.55  -0.94         -231.714627             +0.0001
iter:   3  07:01:24  -0.72  -0.98         -220.593194             +0.0001
iter:   4  07:01:45  -0.96  -1.20         -218.881995             +0.0000
iter:   5  07:02:06  -1.91  -1.36         -221.340348             +0.0000
iter:   6  07:02:27  -1.97  -1.50         -220.502082             -0.0784
iter:   7  07:02:48  -2.18  -1.63         -224.605769             +0.1415
iter:   8  07:03:10  -2.47  -1.88         -224.233706             -0.0103
iter:   9  07:03:31  -2.48  -1.85         -227.193064             -0.0001
iter:  10  07:03:52  -2.73  -1.79         -227.678764             +0.0016
iter:  11  07:04:14  -1.66  -1.85         -227.156815             +0.0005
iter:  12  07:04:35  -2.74  -2.08         -226.738008             -0.0089
iter:  13  07:04:56  -2.36  -2.16         -226.422492             -0.1536
iter:  14  07:05:17  -2.68  -2.41         -226.282638             -0.0520
iter:  15  07:05:39  -3.15  -2.56         -226.246430             -0.0166
iter:  16  07:06:00  -3.40  -2.59         -226.235621             -0.0054
iter:  17  07:06:21  -3.77  -2.62         -226.229098             +0.0096
iter:  18  07:06:42  -4.16  -2.84         -226.229320             -0.0000
iter:  19  07:07:03  -4.90  -3.19         -226.228455             -0.0004
iter:  20  07:07:25  -5.05  -3.27         -226.228216             -0.0001
iter:  21  07:07:46  -4.44  -3.34         -226.226387             -0.0001
iter:  22  07:08:07  -4.79  -3.43         -226.226131             -0.0000
iter:  23  07:08:28  -5.04  -3.73         -226.226301             -0.0001
iter:  24  07:08:49  -5.52  -3.63         -226.226211             -0.0000
iter:  25  07:09:11  -6.16  -3.87         -226.226195             +0.0000
iter:  26  07:09:32  -6.00  -3.93         -226.226149             +0.0000
iter:  27  07:09:53  -6.38  -3.97         -226.226146             +0.0000
iter:  28  07:10:14  -5.97  -4.02         -226.226166             +0.0000
iter:  29  07:10:35  -6.40  -4.05         -226.226145             +0.0000
iter:  30  07:10:57  -7.26  -4.37         -226.226144             +0.0000
iter:  31  07:11:23  -7.63  -4.41         -226.226144             +0.0000
iter:  32  07:11:44  -7.09  -4.52         -226.226146             +0.0000
iter:  33  07:12:11  -7.79  -4.58    -2.07-226.226145             +0.0000
iter:  34  07:12:32  -7.40  -4.74         -226.226142             +0.0000
iter:  35  07:12:59  -8.01  -4.74    -2.71-226.226141             +0.0000
iter:  36  07:13:26  -7.98  -4.85    -3.10-226.226140             +0.0000
iter:  37  07:13:52  -8.37  -4.90    -3.07-226.226140             +0.0000
iter:  38  07:14:19  -8.48  -4.92    -2.85-226.226140             +0.0000
iter:  39  07:14:46  -8.10  -4.99    -2.84-226.226140             -0.0000
iter:  40  07:15:13  -8.18  -5.12    -2.77-226.226140             -0.0000
iter:  41  07:15:39  -9.06  -5.59    -3.80-226.226140             -0.0000
iter:  42  07:16:06  -9.69  -5.64    -3.86-226.226140             -0.0000
iter:  43  07:16:33  -9.64  -5.76    -3.23-226.226140             +0.0000
iter:  44  07:16:59  -9.51  -5.81    -3.82-226.226140             +0.0000
iter:  45  07:17:26  -9.53  -6.05    -3.69-226.226140             +0.0000
iter:  46  07:17:53 -10.39  -6.04    -4.09-226.226140             +0.0000
iter:  47  07:18:19 -10.70  -6.19    -4.35-226.226140             -0.0000
iter:  48  07:18:46 -11.61  -6.21    -4.39-226.226140             -0.0000
iter:  49  07:19:13 -10.81  -6.25    -4.22-226.226140             -0.0000
iter:  50  07:19:40 -11.50  -6.39    -4.71-226.226140             -0.0000
iter:  51  07:20:06 -12.25  -6.46    -5.07-226.226140             -0.0000
iter:  52  07:20:33 -10.59  -6.50    -4.37-226.226140             +0.0000
iter:  53  07:21:00 -11.26  -6.71    -4.85-226.226140             +0.0000
iter:  54  07:21:26 -12.35  -6.79    -5.01-226.226140             +0.0000
iter:  55  07:21:53 -11.67  -6.87    -4.60-226.226140             +0.0000
iter:  56  07:22:20 -12.40  -7.05    -5.26-226.226140             -0.0000
iter:  57  07:22:46 -11.86  -7.11    -4.90-226.226140             +0.0000
iter:  58  07:23:13 -12.57  -7.27    -5.33-226.226140             +0.0000
iter:  59  07:23:40 -13.17  -7.33    -5.65-226.226140             -0.0000
iter:  60  07:24:07 -12.31  -7.41    -5.26-226.226140             +0.0000
iter:  61  07:24:33 -13.12  -7.76    -5.93-226.226140             +0.0000
iter:  62  07:25:00 -14.27  -7.86    -6.23-226.226140             +0.0000

Converged after 62 iterations.

Dipole moment: (10.679817, 1.412640, -6.271967) |e|*Ang

Total magnetic moment: (0.000000, 0.000000, 0.000000)
Local magnetic moments:
   0 O  ( 0.000000,  0.000000, -0.000522)
   1 O  ( 0.000000,  0.000000,  0.000447)
   2 O  ( 0.000000,  0.000000,  0.000560)
   3 O  ( 0.000000,  0.000000, -0.000568)
   4 O  ( 0.000000,  0.000000,  0.000540)
   5 O  ( 0.000000,  0.000000, -0.000548)
   6 O  ( 0.000000,  0.000000, -0.000542)
   7 O  ( 0.000000,  0.000000,  0.000467)
   8 O  ( 0.000000,  0.000000,  0.028771)
   9 O  ( 0.000000,  0.000000, -0.028788)
  10 O  ( 0.000000,  0.000000, -0.029069)
  11 O  ( 0.000000,  0.000000,  0.028621)
  12 Mn ( 0.000000,  0.000000,  4.448153)
  13 Mn ( 0.000000,  0.000000, -4.448255)
  14 Mn ( 0.000000,  0.000000, -4.446993)
  15 Mn ( 0.000000,  0.000000,  4.448162)
  16 P  ( 0.000000,  0.000000,  0.001572)
  17 P  ( 0.000000,  0.000000, -0.001737)
  18 P  ( 0.000000,  0.000000, -0.001555)
  19 P  ( 0.000000,  0.000000,  0.001509)
  20 O  ( 0.000000,  0.000000,  0.025314)
  21 O  ( 0.000000,  0.000000, -0.025269)
  22 O  ( 0.000000,  0.000000, -0.025124)
  23 O  ( 0.000000,  0.000000,  0.025303)
  24 Li ( 0.000000,  0.000000, -0.000024)
  25 Li ( 0.000000,  0.000000, -0.000000)
  26 Li ( 0.000000,  0.000000, -0.000024)
  27 Li ( 0.000000,  0.000000, -0.000000)

Energy contributions relative to reference atoms: (reference = -196157.275402)

Kinetic:       +216.755428
Potential:     -194.774207
External:        +0.000000
XC:            -250.249806
Entropy (-ST):   -0.000000
Local:           +2.042446
Free energy:   -226.226140
Extrapolated:  -226.226140

Spin contamination: 9.560278 electrons
Showing only first 2 kpts
                      Up                     Down
 Kpt  Band  Eigenvalues  Occupancy  Eigenvalues  Occupancy
  0    88      5.10710    1.00000      5.10839    1.00000
  0    89      5.13571    1.00000      5.15716    1.00000
  0    90      7.28586    0.00000      7.28376    0.00000
  0    91      7.31634    0.00000      7.31017    0.00000

  1    88      5.13331    1.00000      5.13520    1.00000
  1    89      5.16569    1.00000      5.18749    1.00000
  1    90      7.22723    0.00000      7.22561    0.00000
  1    91      7.25610    0.00000      7.24841    0.00000

Fermi level: 6.59610

Gap: 1.954 eV
Transition (v -> c):
  (s=1, k=74, n=89, [0.08, -0.42, 0.12]) -> (s=1, k=57, n=90, [-0.08, -0.08, -0.12])
Writing to born-0.01-10x-.gpw (mode='all')