User:   madkru@i009.nifl.fysik.dtu.dk
Date:   Thu Apr  1 19:23:31 2021
Arch:   x86_64
Pid:    31381
Python: 3.8.6
gpaw:   /home/niflheim/madkru/venv_madkru/gpaw/gpaw (e6f0d78a31)
_gpaw:  /home/niflheim/madkru/venv_madkru/gpaw/build/lib.linux-x86_64-ivybridge-3.8/
        _gpaw.cpython-38-x86_64-linux-gnu.so (e6f0d78a31)
ase:    /home/niflheim/madkru/venv_madkru/ase/ase (version 3.22.0b1-4d5a73cb29)
numpy:  /home/modules/software/SciPy-bundle/2020.11-foss-2020b/lib/python3.8/site-packages/numpy (version 1.19.4)
scipy:  /home/modules/software/SciPy-bundle/2020.11-foss-2020b/lib/python3.8/site-packages/scipy (version 1.5.4)
units:  Angstrom and eV
cores: 64
OpenMP: False
OMP_NUM_THREADS: 1

Input parameters:
  convergence: {bands: occupied,
                density: 0.0001,
                eigenstates: 4e-08,
                energy: 0.0005,
                forces: 1e-06}
  kpts: [6 6 4]
  maxiter: 1000
  mode: {ecut: 600.0,
         gammacentered: False,
         name: pw}
  occupations: {fixmagmom: False,
                name: fermi-dirac,
                width: 0.001}
  symmetry: {point_group: False,
             time_reversal: False}

System changes: positions, numbers, cell, pbc, initial_charges, initial_magmoms

Initialize ...

O-setup:
  name: Oxygen
  id: 9b9d51c344dea68c822856295a461509
  Z: 8.0
  valence: 6
  core: 2
  charge: 0.0
  file: /home/modules/software/GPAW-setups/0.9.20000/O.LDA.gz
  compensation charges: gauss, rc=0.21, lmax=2
  cutoffs: 1.17(filt), 0.83(core),
  valence states:
                energy  radius
    2s(2.00)   -23.752   0.688
    2p(4.00)    -9.195   0.598
    *s           3.459   0.688
    *p          18.016   0.598
    *d           0.000   0.619

  Using partial waves for O as LCAO basis

Mn-setup:
  name: Manganese
  id: 0d715a8018be061a6e9ea6f2d364ac92
  Z: 25.0
  valence: 15
  core: 10
  charge: 0.0
  file: /home/modules/software/GPAW-setups/0.9.20000/Mn.LDA.gz
  compensation charges: gauss, rc=0.38, lmax=2
  cutoffs: 2.14(filt), 0.86(core),
  valence states:
                energy  radius
    3s(2.00)   -85.387   1.275
    4s(2.00)    -5.282   1.275
    3p(6.00)   -54.493   1.281
    4p(0.00)    -1.471   1.281
    3d(5.00)    -7.009   1.138
    *d          20.203   1.138

[...]

P-setup:
  name: Phosphorus
  id: a5561c299094968922a179ab894d2e2d
  Z: 15.0
  valence: 5
  core: 10
  charge: 0.0
  file: /home/modules/software/GPAW-setups/0.9.20000/P.LDA.gz
  compensation charges: gauss, rc=0.30, lmax=2
  cutoffs: 1.69(filt), 1.81(core),
  valence states:
                energy  radius
    3s(2.00)   -14.015   0.953
    3p(3.00)    -5.596   0.953
    *s          13.197   0.953
    *p          21.615   0.953
    *d           0.000   0.953

[...]

Li-setup:
  name: Lithium
  id: b73562207f97a71b6967473b66fe8b65
  Z: 3.0
  valence: 1
  core: 2
  charge: 0.0
  file: /home/modules/software/GPAW-setups/0.9.20000/Li.LDA.gz
  compensation charges: gauss, rc=0.33, lmax=2
  cutoffs: 1.91(filt), 2.55(core),
  valence states:
                energy  radius
    2s(1.00)    -2.874   1.058
    2p(0.00)    -1.126   1.058
    *s          24.338   1.058

  Using partial waves for Li as LCAO basis

Reference energy: -196157.275402

Spin-polarized calculation.
Magnetic moment: 0.000000

Convergence criteria:
  Maximum total energy change: 0.0005 eV / electron
  Maximum integral of absolute density change: 0.0001 electrons
  Maximum integral of absolute eigenstate change: 4e-08 eV^2
  Maximum change in atomic force: 1e-06 eV / Ang
  Maximum number of iterations: 1000

Symmetries present (total): 1

  ( 1  0  0)
  ( 0  1  0)
  ( 0  0  1)

144 k-points: 6 x 6 x 4 Monkhorst-Pack grid
144 k-points in the irreducible part of the Brillouin zone
       k-points in crystal coordinates                weights
   0:    -0.41666667   -0.41666667   -0.37500000          1/144
   1:    -0.41666667   -0.41666667   -0.12500000          1/144
   2:    -0.41666667   -0.41666667    0.12500000          1/144
   3:    -0.41666667   -0.41666667    0.37500000          1/144
   4:    -0.41666667   -0.25000000   -0.37500000          1/144
   5:    -0.41666667   -0.25000000   -0.12500000          1/144
   6:    -0.41666667   -0.25000000    0.12500000          1/144
   7:    -0.41666667   -0.25000000    0.37500000          1/144
   8:    -0.41666667   -0.08333333   -0.37500000          1/144
   9:    -0.41666667   -0.08333333   -0.12500000          1/144
          ...
 143:     0.41666667    0.41666667    0.37500000          1/144

Wave functions: Plane wave expansion
  Cutoff energy: 600.000 eV
  Number of coefficients (min, max): 10068, 10125
  Pulay-stress correction: 0.000000 eV/Ang^3 (de/decut=0.000000)
  Using FFTW library
  ScaLapack parameters: grid=1x1, blocksize=None
  Wavefunction extrapolation:
    Improved wavefunction reuse through dual PAW basis

  Fermi-Dirac: width=0.0010 eV

Eigensolver
   Davidson(niter=2)

Densities:
  Coarse grid: 60*35*27 grid
  Fine grid: 120*70*54 grid
  Total Charge: 0.000000

Density mixing:
  Method: difference
  Backend: pulay
  Linear mixing parameter: 0.05
  Mixing with 5 old densities
  Damping of long wave oscillations: 50

Hamiltonian:
  XC and Coulomb potentials evaluated on a 120*70*54 grid
  Using the LDA Exchange-Correlation functional

Total number of cores used: 64
Parallelization over k-points: 16
Domain decomposition: 2 x 2 x 1

Number of atoms: 28
Number of atomic orbitals: 148
Number of bands in calculation: 112
Number of valence electrons: 180
Bands to converge: occupied

... initialized

Initializing position-dependent things.

Density initialized from atomic densities
Creating initial wave functions:
  112 bands from LCAO basis set

    /|         OP              |
   / |O            O        O  |
  /  |       O            O  P |
 *   |O    Mn      O           |
 |   |          OLi          O |
 |   .P-O--------------Mn------.
 |  /          Li    O  Mn  O /
 | /Li O           PO        /
 |/       Mn                /
 *Li-----------------------*

Positions:
   0 O     -1.360678   -2.541161   -1.202221    ( 0.0000,  0.0000,  0.0000)
   1 O     -3.121941    2.976855    1.167242    ( 0.0000,  0.0000,  0.0000)
   2 O      2.107533    0.508090    1.540712    ( 0.0000,  0.0000,  0.0000)
   3 O      3.869373   -0.072395   -0.828750    ( 0.0000,  0.0000,  0.0000)
   4 O      2.107821    2.976875    1.540792    ( 0.0000,  0.0000,  0.0000)
   5 O      3.869084   -2.541141   -0.828671    ( 0.0000,  0.0000,  0.0000)
   6 O     -1.360390   -0.072375   -1.202141    ( 0.0000,  0.0000,  0.0000)
   7 O     -3.122230    0.508109    1.167321    ( 0.0000,  0.0000,  0.0000)
   8 O     -4.413461   -1.306992   -0.794251    ( 0.0000,  0.0000,  0.0000)
   9 O     -0.069585    1.742707    1.575662    ( 0.0000,  0.0000,  0.0000)
  10 O      5.160604    1.742707    1.132822    ( 0.0000,  0.0000,  0.0000)
  11 O      0.816728   -1.306992   -1.237091    ( 0.0000,  0.0000,  0.0000)
  12 Mn    -2.570809   -1.307302    0.247161    ( 0.0000,  0.0000,  1.0000)
  13 Mn    -1.912021    1.743016   -2.122906    ( 0.0000,  0.0000, -1.0000)
  14 Mn     3.317952    1.743017    0.091411    ( 0.0000,  0.0000, -1.0000)
  15 Mn     2.659164   -1.307302    2.461478    ( 0.0000,  0.0000,  1.0000)
  16 P     -0.620664   -1.306816   -1.828465    ( 0.0000,  0.0000,  0.0000)
  17 P     -3.862097    1.742530    0.541238    ( 0.0000,  0.0000,  0.0000)
  18 P      1.367807    1.742530    2.167036    ( 0.0000,  0.0000,  0.0000)
  19 P      4.609240   -1.306816   -0.202666    ( 0.0000,  0.0000,  0.0000)
  20 O     -0.646437   -1.306845    1.374751    ( 0.0000,  0.0000,  0.0000)
  21 O     -3.836504    1.742559   -0.995565    ( 0.0000,  0.0000,  0.0000)
  22 O      1.403580    1.742559   -1.036179    ( 0.0000,  0.0000,  0.0000)
  23 O      4.583647   -1.306845    1.334136    ( 0.0000,  0.0000,  0.0000)
  24 Li    -4.856429   -2.832143   -2.200714    ( 0.0000,  0.0000,  0.0000)
  25 Li     0.373571   -2.832143    0.169286    ( 0.0000,  0.0000,  0.0000)
  26 Li    -4.856429    0.217857   -2.200714    ( 0.0000,  0.0000,  0.0000)
  27 Li     0.373571    0.217857    0.169286    ( 0.0000,  0.0000,  0.0000)

Unit cell:
           periodic     x           y           z      points  spacing
  1. axis:    yes   10.460000    0.000000    0.000000    60     0.1743
  2. axis:    yes    0.000000    6.100000    0.000000    35     0.1743
  3. axis:    yes    0.000000    0.000000    4.740000    27     0.1756

  Lengths:  10.460000   6.100000   4.740000
  Angles:   90.000000  90.000000  90.000000

Effective grid spacing dv^(1/3) = 0.1747

                     log10-error:           total        iterations:
           time      wfs    density  force  energy       poisson  magmom
iter:   1  19:25:01                       -231.921546             +0.0000
iter:   2  19:25:21  -0.55  -0.94         -231.721603             +0.0056
iter:   3  19:25:42  -0.72  -0.98         -220.592194             +0.0070
iter:   4  19:26:02  -0.96  -1.20         -218.875346             +0.0023
iter:   5  19:26:23  -1.94  -1.36         -221.577991             +0.0015
iter:   6  19:26:44  -2.01  -1.48         -220.392385             -0.1543
iter:   7  19:27:05  -2.04  -1.67         -224.627387             +0.6808
iter:   8  19:27:25  -2.31  -1.87         -225.893700             +0.3870
iter:   9  19:27:46  -2.37  -1.84         -227.498937             -0.0131
iter:  10  19:28:07  -3.29  -1.76         -227.497086             -0.0041
iter:  11  19:28:27  -3.09  -1.80         -227.418488             +0.0001
iter:  12  19:28:48  -1.45  -1.84         -230.252526             -0.0002
iter:  13  19:29:09  -2.41  -1.79         -230.101241             -0.0245
iter:  14  19:29:30  -2.42  -1.80         -231.135609             +2.4632
iter:  15  19:29:50  -2.12  -1.77         -227.609345             +5.1228
iter:  16  19:30:11  -2.53  -1.74         -225.900287             +5.6502
iter:  17  19:30:32  -2.61  -1.73         -226.156072             +5.9950
iter:  18  19:30:53  -2.64  -1.77         -223.842300             +5.9759
iter:  19  19:31:14  -2.38  -1.94         -222.969979             +5.9466
iter:  20  19:31:34  -2.83  -2.03         -223.778337             +5.1236
iter:  21  19:31:55  -2.64  -1.98         -223.584991             +4.2252
iter:  22  19:32:16  -1.97  -2.02         -225.375274             +2.6710
iter:  23  19:32:36  -3.18  -2.12         -225.439361             +2.5452
iter:  24  19:32:57  -3.00  -2.27         -226.244015             +1.2534
iter:  25  19:33:18  -2.94  -2.32         -226.336835             +0.1241
iter:  26  19:33:38  -3.38  -2.41         -226.309707             +0.0198
iter:  27  19:33:59  -3.37  -2.44         -226.271999             -0.0202
iter:  28  19:34:19  -3.11  -2.64         -226.240807             -0.0027
iter:  29  19:34:40  -3.31  -2.78         -226.243331             -0.0050
iter:  30  19:35:01  -3.77  -2.91         -226.230932             +0.0004
iter:  31  19:35:21  -4.75  -3.14         -226.230288             -0.0035
iter:  32  19:35:42  -4.54  -3.19         -226.228403             -0.0008
iter:  33  19:36:02  -4.62  -3.29         -226.228238             -0.0001
iter:  34  19:36:23  -4.94  -3.30         -226.228195             -0.0002
iter:  35  19:36:43  -5.32  -3.45         -226.227942             -0.0001
iter:  36  19:37:04  -5.31  -3.67         -226.227810             -0.0000
iter:  37  19:37:24  -5.98  -3.76         -226.227739             -0.0000
iter:  38  19:37:45  -6.20  -3.81         -226.227741             -0.0000
iter:  39  19:38:06  -6.71  -3.92         -226.227734             -0.0000
iter:  40  19:38:26  -7.10  -3.99         -226.227722             -0.0000
iter:  41  19:38:47  -6.72  -4.03         -226.227703             -0.0000
iter:  42  19:39:08  -6.08  -4.11         -226.227676             -0.0000
iter:  43  19:39:28  -6.77  -4.39         -226.227667             -0.0000
iter:  44  19:39:54  -7.41  -4.66         -226.227665             -0.0000
iter:  45  19:40:20  -7.41  -4.76    -2.79-226.227661             -0.0000
iter:  46  19:40:40  -7.10  -4.86         -226.227662             -0.0000
iter:  47  19:41:06  -8.05  -4.99    -2.46-226.227661             -0.0000
iter:  48  19:41:32  -8.06  -4.96    -3.01-226.227660             +0.0000
iter:  49  19:41:58  -8.37  -5.12    -2.99-226.227660             -0.0000
iter:  50  19:42:24  -8.87  -5.43    -3.49-226.227660             -0.0000
iter:  51  19:42:49  -9.49  -5.62    -3.79-226.227660             -0.0000
iter:  52  19:43:15  -9.69  -5.71    -3.63-226.227660             -0.0000
iter:  53  19:43:41  -9.87  -5.82    -3.98-226.227660             -0.0000
iter:  54  19:44:07 -10.60  -5.87    -4.40-226.227660             -0.0000
iter:  55  19:44:32  -9.21  -5.88    -3.48-226.227660             +0.0000
iter:  56  19:44:58 -10.22  -6.15    -3.86-226.227660             -0.0000
iter:  57  19:45:24 -11.03  -6.23    -4.68-226.227660             -0.0000
iter:  58  19:45:50 -10.96  -6.27    -4.21-226.227660             -0.0000
iter:  59  19:46:16 -10.72  -6.70    -4.23-226.227660             -0.0000
iter:  60  19:46:42 -12.05  -6.99    -5.06-226.227660             -0.0000
iter:  61  19:47:07 -11.44  -7.04    -4.59-226.227660             +0.0000
iter:  62  19:47:33 -12.12  -7.14    -4.88-226.227660             +0.0000
iter:  63  19:47:59 -12.22  -7.35    -5.03-226.227660             +0.0000
iter:  64  19:48:25 -12.18  -7.38    -5.02-226.227660             +0.0000
iter:  65  19:48:51 -12.58  -7.57    -5.04-226.227660             -0.0000
iter:  66  19:49:16 -13.91  -7.99    -6.10-226.227660             +0.0000

Converged after 66 iterations.

Dipole moment: (10.671999, 1.410560, -6.269151) |e|*Ang

Total magnetic moment: (0.000000, 0.000000, 0.000000)
Local magnetic moments:
   0 O  ( 0.000000,  0.000000, -0.000566)
   1 O  ( 0.000000,  0.000000,  0.000520)
   2 O  ( 0.000000,  0.000000,  0.000545)
   3 O  ( 0.000000,  0.000000, -0.000597)
   4 O  ( 0.000000,  0.000000,  0.000525)
   5 O  ( 0.000000,  0.000000, -0.000577)
   6 O  ( 0.000000,  0.000000, -0.000586)
   7 O  ( 0.000000,  0.000000,  0.000540)
   8 O  ( 0.000000,  0.000000,  0.028739)
   9 O  ( 0.000000,  0.000000, -0.028725)
  10 O  ( 0.000000,  0.000000, -0.028539)
  11 O  ( 0.000000,  0.000000,  0.028627)
  12 Mn ( 0.000000,  0.000000,  4.448144)
  13 Mn ( 0.000000,  0.000000, -4.448146)
  14 Mn ( 0.000000,  0.000000, -4.447756)
  15 Mn ( 0.000000,  0.000000,  4.448214)
  16 P  ( 0.000000,  0.000000,  0.001563)
  17 P  ( 0.000000,  0.000000, -0.001549)
  18 P  ( 0.000000,  0.000000, -0.001755)
  19 P  ( 0.000000,  0.000000,  0.001515)
  20 O  ( 0.000000,  0.000000,  0.025302)
  21 O  ( 0.000000,  0.000000, -0.025336)
  22 O  ( 0.000000,  0.000000, -0.025398)
  23 O  ( 0.000000,  0.000000,  0.025314)
  24 Li ( 0.000000,  0.000000, -0.000000)
  25 Li ( 0.000000,  0.000000, -0.000003)
  26 Li ( 0.000000,  0.000000, -0.000000)
  27 Li ( 0.000000,  0.000000, -0.000003)

Energy contributions relative to reference atoms: (reference = -196157.275402)

Kinetic:       +217.420037
Potential:     -195.292473
External:        +0.000000
XC:            -250.396022
Entropy (-ST):   -0.000000
Local:           +2.040798
Free energy:   -226.227660
Extrapolated:  -226.227660

Spin contamination: 9.560276 electrons
Showing only first 2 kpts
                      Up                     Down
 Kpt  Band  Eigenvalues  Occupancy  Eigenvalues  Occupancy
  0    88      5.11118    1.00000      5.11132    1.00000
  0    89      5.13585    1.00000      5.14503    1.00000
  0    90      7.28982    0.00000      7.28902    0.00000
  0    91      7.31281    0.00000      7.30885    0.00000

  1    88      5.13695    1.00000      5.13757    1.00000
  1    89      5.16619    1.00000      5.17639    1.00000
  1    90      7.23134    0.00000      7.23145    0.00000
  1    91      7.25023    0.00000      7.24645    0.00000

Fermi level: 5.98500

Gap: 1.965 eV
Transition (v -> c):
  (s=1, k=74, n=89, [0.08, -0.42, 0.12]) -> (s=0, k=58, n=90, [-0.08, -0.08, 0.12])
Writing to born-0.01-22x+.gpw (mode='all')