User:   madkru@g043.nifl.fysik.dtu.dk
Date:   Tue Mar 30 22:02:44 2021
Arch:   x86_64
Pid:    39387
Python: 3.8.6
gpaw:   /home/niflheim/madkru/venv_madkru/gpaw/gpaw (e6f0d78a31)
_gpaw:  /home/niflheim/madkru/venv_madkru/gpaw/build/lib.linux-x86_64-sandybridge-3.8/
        _gpaw.cpython-38-x86_64-linux-gnu.so (e6f0d78a31)
ase:    /home/niflheim/madkru/venv_madkru/ase/ase (version 3.22.0b1-4d5a73cb29)
numpy:  /home/modules/software/SciPy-bundle/2020.11-foss-2020b/lib/python3.8/site-packages/numpy (version 1.19.4)
scipy:  /home/modules/software/SciPy-bundle/2020.11-foss-2020b/lib/python3.8/site-packages/scipy (version 1.5.4)
units:  Angstrom and eV
cores: 64
OpenMP: False
OMP_NUM_THREADS: 1

Input parameters:
  convergence: {bands: occupied,
                density: 0.0001,
                eigenstates: 4e-08,
                energy: 0.0005,
                forces: 1e-06}
  kpts: [6 6 4]
  maxiter: 1000
  mode: {ecut: 600.0,
         gammacentered: False,
         name: pw}
  occupations: {fixmagmom: False,
                name: fermi-dirac,
                width: 0.001}
  symmetry: {point_group: False,
             time_reversal: False}

System changes: positions, numbers, cell, pbc, initial_charges, initial_magmoms

Initialize ...

O-setup:
  name: Oxygen
  id: 9b9d51c344dea68c822856295a461509
  Z: 8.0
  valence: 6
  core: 2
  charge: 0.0
  file: /home/modules/software/GPAW-setups/0.9.20000/O.LDA.gz
  compensation charges: gauss, rc=0.21, lmax=2
  cutoffs: 1.17(filt), 0.83(core),
  valence states:
                energy  radius
    2s(2.00)   -23.752   0.688
    2p(4.00)    -9.195   0.598
    *s           3.459   0.688
    *p          18.016   0.598
    *d           0.000   0.619

  Using partial waves for O as LCAO basis

Mn-setup:
  name: Manganese
  id: 0d715a8018be061a6e9ea6f2d364ac92
  Z: 25.0
  valence: 15
  core: 10
  charge: 0.0
  file: /home/modules/software/GPAW-setups/0.9.20000/Mn.LDA.gz
  compensation charges: gauss, rc=0.38, lmax=2
  cutoffs: 2.14(filt), 0.86(core),
  valence states:
                energy  radius
    3s(2.00)   -85.387   1.275
    4s(2.00)    -5.282   1.275
    3p(6.00)   -54.493   1.281
    4p(0.00)    -1.471   1.281
    3d(5.00)    -7.009   1.138
    *d          20.203   1.138

[...]

P-setup:
  name: Phosphorus
  id: a5561c299094968922a179ab894d2e2d
  Z: 15.0
  valence: 5
  core: 10
  charge: 0.0
  file: /home/modules/software/GPAW-setups/0.9.20000/P.LDA.gz
  compensation charges: gauss, rc=0.30, lmax=2
  cutoffs: 1.69(filt), 1.81(core),
  valence states:
                energy  radius
    3s(2.00)   -14.015   0.953
    3p(3.00)    -5.596   0.953
    *s          13.197   0.953
    *p          21.615   0.953
    *d           0.000   0.953

[...]

Li-setup:
  name: Lithium
  id: b73562207f97a71b6967473b66fe8b65
  Z: 3.0
  valence: 1
  core: 2
  charge: 0.0
  file: /home/modules/software/GPAW-setups/0.9.20000/Li.LDA.gz
  compensation charges: gauss, rc=0.33, lmax=2
  cutoffs: 1.91(filt), 2.55(core),
  valence states:
                energy  radius
    2s(1.00)    -2.874   1.058
    2p(0.00)    -1.126   1.058
    *s          24.338   1.058

  Using partial waves for Li as LCAO basis

Reference energy: -196157.275402

Spin-polarized calculation.
Magnetic moment: 0.000000

Convergence criteria:
  Maximum total energy change: 0.0005 eV / electron
  Maximum integral of absolute density change: 0.0001 electrons
  Maximum integral of absolute eigenstate change: 4e-08 eV^2
  Maximum change in atomic force: 1e-06 eV / Ang
  Maximum number of iterations: 1000

Symmetries present (total): 1

  ( 1  0  0)
  ( 0  1  0)
  ( 0  0  1)

144 k-points: 6 x 6 x 4 Monkhorst-Pack grid
144 k-points in the irreducible part of the Brillouin zone
       k-points in crystal coordinates                weights
   0:    -0.41666667   -0.41666667   -0.37500000          1/144
   1:    -0.41666667   -0.41666667   -0.12500000          1/144
   2:    -0.41666667   -0.41666667    0.12500000          1/144
   3:    -0.41666667   -0.41666667    0.37500000          1/144
   4:    -0.41666667   -0.25000000   -0.37500000          1/144
   5:    -0.41666667   -0.25000000   -0.12500000          1/144
   6:    -0.41666667   -0.25000000    0.12500000          1/144
   7:    -0.41666667   -0.25000000    0.37500000          1/144
   8:    -0.41666667   -0.08333333   -0.37500000          1/144
   9:    -0.41666667   -0.08333333   -0.12500000          1/144
          ...
 143:     0.41666667    0.41666667    0.37500000          1/144

Wave functions: Plane wave expansion
  Cutoff energy: 600.000 eV
  Number of coefficients (min, max): 10068, 10125
  Pulay-stress correction: 0.000000 eV/Ang^3 (de/decut=0.000000)
  Using FFTW library
  ScaLapack parameters: grid=1x1, blocksize=None
  Wavefunction extrapolation:
    Improved wavefunction reuse through dual PAW basis

  Fermi-Dirac: width=0.0010 eV

Eigensolver
   Davidson(niter=2)

Densities:
  Coarse grid: 60*35*27 grid
  Fine grid: 120*70*54 grid
  Total Charge: 0.000000

Density mixing:
  Method: difference
  Backend: pulay
  Linear mixing parameter: 0.05
  Mixing with 5 old densities
  Damping of long wave oscillations: 50

Hamiltonian:
  XC and Coulomb potentials evaluated on a 120*70*54 grid
  Using the LDA Exchange-Correlation functional

Total number of cores used: 64
Parallelization over k-points: 16
Domain decomposition: 2 x 2 x 1

Number of atoms: 28
Number of atomic orbitals: 148
Number of bands in calculation: 112
Number of valence electrons: 180
Bands to converge: occupied

... initialized

Initializing position-dependent things.

Density initialized from atomic densities
Creating initial wave functions:
  112 bands from LCAO basis set

    /|         OP              |
   / |O            O        O  |
  /  |       O            O  P |
 *   |O    Mn      O           |
 |   |          OLi          O |
 |   .P-O--------------Mn------.
 |  /          Li    O  Mn  O /
 | /Li O           PO        /
 |/       Mn                /
 *Li-----------------------*

Positions:
   0 O     -1.360678   -2.541161   -1.202221    ( 0.0000,  0.0000,  0.0000)
   1 O     -3.121941    2.976855    1.167242    ( 0.0000,  0.0000,  0.0000)
   2 O      2.107533    0.508090    1.540712    ( 0.0000,  0.0000,  0.0000)
   3 O      3.869373   -0.072395   -0.828750    ( 0.0000,  0.0000,  0.0000)
   4 O      2.107821    2.976875    1.540792    ( 0.0000,  0.0000,  0.0000)
   5 O      3.869084   -2.541141   -0.828671    ( 0.0000,  0.0000,  0.0000)
   6 O     -1.360390   -0.072375   -1.202141    ( 0.0000,  0.0000,  0.0000)
   7 O     -3.122230    0.508109    1.167321    ( 0.0000,  0.0000,  0.0000)
   8 O     -4.413461   -1.306992   -0.794251    ( 0.0000,  0.0000,  0.0000)
   9 O     -0.069585    1.742707    1.575662    ( 0.0000,  0.0000,  0.0000)
  10 O      5.160604    1.742707    1.132822    ( 0.0000,  0.0000,  0.0000)
  11 O      0.816728   -1.306992   -1.237091    ( 0.0000,  0.0000,  0.0000)
  12 Mn    -2.570809   -1.307302    0.247161    ( 0.0000,  0.0000,  1.0000)
  13 Mn    -1.912021    1.743016   -2.122906    ( 0.0000,  0.0000, -1.0000)
  14 Mn     3.317952    1.733017    0.091411    ( 0.0000,  0.0000, -1.0000)
  15 Mn     2.659164   -1.307302    2.461478    ( 0.0000,  0.0000,  1.0000)
  16 P     -0.620664   -1.306816   -1.828465    ( 0.0000,  0.0000,  0.0000)
  17 P     -3.862097    1.742530    0.541238    ( 0.0000,  0.0000,  0.0000)
  18 P      1.367807    1.742530    2.167036    ( 0.0000,  0.0000,  0.0000)
  19 P      4.609240   -1.306816   -0.202666    ( 0.0000,  0.0000,  0.0000)
  20 O     -0.646437   -1.306845    1.374751    ( 0.0000,  0.0000,  0.0000)
  21 O     -3.836504    1.742559   -0.995565    ( 0.0000,  0.0000,  0.0000)
  22 O      1.393580    1.742559   -1.036179    ( 0.0000,  0.0000,  0.0000)
  23 O      4.583647   -1.306845    1.334136    ( 0.0000,  0.0000,  0.0000)
  24 Li    -4.856429   -2.832143   -2.200714    ( 0.0000,  0.0000,  0.0000)
  25 Li     0.373571   -2.832143    0.169286    ( 0.0000,  0.0000,  0.0000)
  26 Li    -4.856429    0.217857   -2.200714    ( 0.0000,  0.0000,  0.0000)
  27 Li     0.373571    0.217857    0.169286    ( 0.0000,  0.0000,  0.0000)

Unit cell:
           periodic     x           y           z      points  spacing
  1. axis:    yes   10.460000    0.000000    0.000000    60     0.1743
  2. axis:    yes    0.000000    6.100000    0.000000    35     0.1743
  3. axis:    yes    0.000000    0.000000    4.740000    27     0.1756

  Lengths:  10.460000   6.100000   4.740000
  Angles:   90.000000  90.000000  90.000000

Effective grid spacing dv^(1/3) = 0.1747

                     log10-error:           total        iterations:
           time      wfs    density  force  energy       poisson  magmom
iter:   1  22:04:19                       -231.920285             +0.0000
iter:   2  22:04:40  -0.55  -0.94         -231.731279             +0.0052
iter:   3  22:05:02  -0.72  -0.98         -220.584832             +0.0065
iter:   4  22:05:23  -0.96  -1.20         -218.866796             +0.0022
iter:   5  22:05:44  -1.94  -1.36         -221.276268             +0.0014
iter:   6  22:06:05  -1.99  -1.50         -220.028890             +0.0007
iter:   7  22:06:27  -2.22  -1.67         -223.475546             +0.0486
iter:   8  22:06:48  -2.72  -1.89         -220.406791             +0.0738
iter:   9  22:07:09  -1.57  -1.91         -226.593308             -0.0078
iter:  10  22:07:30  -2.59  -1.82         -227.384317             +0.0041
iter:  11  22:07:52  -1.27  -1.80         -229.572809             +0.0009
iter:  12  22:08:13  -2.32  -1.80         -229.424741             +0.1598
iter:  13  22:08:34  -2.47  -1.80         -230.740140             +1.7107
iter:  14  22:08:55  -2.34  -1.69         -228.250180             +1.7599
iter:  15  22:09:17  -1.70  -1.68         -222.330052             +1.9322
iter:  16  22:09:38  -2.74  -1.95         -223.028449             +1.7218
iter:  17  22:09:59  -2.52  -2.05         -225.744131             +0.5134
iter:  18  22:10:20  -2.21  -2.06         -226.618394             -0.1486
iter:  19  22:10:42  -3.05  -2.08         -226.540666             -0.0052
iter:  20  22:11:03  -2.93  -2.12         -226.390036             +0.0001
iter:  21  22:11:24  -1.87  -2.18         -226.746175             -0.0015
iter:  22  22:11:45  -3.12  -2.38         -226.437991             +0.0001
iter:  23  22:12:07  -2.64  -2.46         -226.249500             +0.0007
iter:  24  22:12:28  -3.18  -2.66         -226.233192             +0.0002
iter:  25  22:12:49  -3.97  -2.72         -226.231925             +0.0000
iter:  26  22:13:10  -3.69  -2.76         -226.242100             -0.0000
iter:  27  22:13:31  -3.73  -3.06         -226.228518             +0.0000
iter:  28  22:13:53  -4.44  -3.32         -226.228687             +0.0000
iter:  29  22:14:14  -5.33  -3.39         -226.228431             +0.0000
iter:  30  22:14:35  -4.66  -3.48         -226.227777             +0.0000
iter:  31  22:14:56  -5.88  -3.69         -226.227736             +0.0000
iter:  32  22:15:17  -5.69  -3.74         -226.227703             +0.0000
iter:  33  22:15:39  -5.73  -3.96         -226.227692             +0.0000
iter:  34  22:16:00  -6.52  -4.16         -226.227668             +0.0000
iter:  35  22:16:21  -6.61  -4.38         -226.227659             +0.0000
iter:  36  22:16:48  -7.42  -4.68         -226.227659             +0.0000
iter:  37  22:17:14  -7.90  -4.71    -2.86-226.227659             -0.0000
iter:  38  22:17:41  -8.41  -4.83    -3.01-226.227658             +0.0000
iter:  39  22:18:08  -7.72  -4.89    -2.70-226.227658             +0.0000
iter:  40  22:18:34  -8.10  -5.07    -2.78-226.227658             +0.0000
iter:  41  22:19:01  -9.09  -5.22    -3.49-226.227658             +0.0000
iter:  42  22:19:28  -8.76  -5.28    -3.29-226.227658             -0.0000
iter:  43  22:19:55  -9.11  -5.39    -3.23-226.227658             +0.0000
iter:  44  22:20:21  -9.68  -5.44    -3.67-226.227658             +0.0000
iter:  45  22:20:48  -9.46  -5.48    -3.44-226.227658             +0.0000
iter:  46  22:21:15  -9.69  -5.54    -3.92-226.227658             +0.0000
iter:  47  22:21:41  -9.93  -5.60    -3.77-226.227658             +0.0000
iter:  48  22:22:08 -10.18  -5.67    -3.83-226.227658             +0.0000
iter:  49  22:22:35  -9.23  -5.74    -3.68-226.227658             +0.0000
iter:  50  22:23:02 -10.17  -6.06    -3.90-226.227658             +0.0000
iter:  51  22:23:28 -10.81  -6.15    -4.28-226.227658             +0.0000
iter:  52  22:23:55 -10.55  -6.22    -4.13-226.227658             +0.0000
iter:  53  22:24:22 -10.36  -6.32    -4.25-226.227658             +0.0000
iter:  54  22:24:48 -11.32  -6.44    -4.33-226.227658             +0.0000
iter:  55  22:25:15 -11.03  -6.48    -4.49-226.227658             +0.0000
iter:  56  22:25:42 -11.55  -6.64    -4.69-226.227658             +0.0000
iter:  57  22:26:09 -12.75  -6.94    -5.40-226.227658             +0.0000
iter:  58  22:26:35 -11.76  -6.98    -4.76-226.227658             +0.0000
iter:  59  22:27:02 -12.49  -7.20    -5.33-226.227658             +0.0000
iter:  60  22:27:29 -12.96  -7.30    -5.65-226.227658             +0.0000
iter:  61  22:27:55 -12.92  -7.35    -5.21-226.227658             +0.0000
iter:  62  22:28:22 -12.82  -7.49    -5.45-226.227658             +0.0000
iter:  63  22:28:49 -14.09  -7.65    -6.04-226.227658             +0.0000

Converged after 63 iterations.

Dipole moment: (10.671455, 1.399516, -6.269783) |e|*Ang

Total magnetic moment: (0.000000, 0.000000, 0.000000)
Local magnetic moments:
   0 O  ( 0.000000,  0.000000, -0.000519)
   1 O  ( 0.000000,  0.000000,  0.000519)
   2 O  ( 0.000000,  0.000000,  0.000155)
   3 O  ( 0.000000,  0.000000, -0.001068)
   4 O  ( 0.000000,  0.000000,  0.000904)
   5 O  ( 0.000000,  0.000000, -0.000026)
   6 O  ( 0.000000,  0.000000, -0.000537)
   7 O  ( 0.000000,  0.000000,  0.000568)
   8 O  ( 0.000000,  0.000000,  0.028692)
   9 O  ( 0.000000,  0.000000, -0.028702)
  10 O  ( 0.000000,  0.000000, -0.028694)
  11 O  ( 0.000000,  0.000000,  0.028702)
  12 Mn ( 0.000000,  0.000000,  4.448162)
  13 Mn ( 0.000000,  0.000000, -4.448240)
  14 Mn ( 0.000000,  0.000000, -4.448113)
  15 Mn ( 0.000000,  0.000000,  4.448234)
  16 P  ( 0.000000,  0.000000,  0.001558)
  17 P  ( 0.000000,  0.000000, -0.001543)
  18 P  ( 0.000000,  0.000000, -0.001559)
  19 P  ( 0.000000,  0.000000,  0.001541)
  20 O  ( 0.000000,  0.000000,  0.025315)
  21 O  ( 0.000000,  0.000000, -0.025306)
  22 O  ( 0.000000,  0.000000, -0.025317)
  23 O  ( 0.000000,  0.000000,  0.025304)
  24 Li ( 0.000000,  0.000000,  0.000001)
  25 Li ( 0.000000,  0.000000, -0.000005)
  26 Li ( 0.000000,  0.000000, -0.000002)
  27 Li ( 0.000000,  0.000000,  0.000005)

Energy contributions relative to reference atoms: (reference = -196157.275402)

Kinetic:       +217.355560
Potential:     -195.239979
External:        +0.000000
XC:            -250.384356
Entropy (-ST):   -0.000000
Local:           +2.041117
Free energy:   -226.227658
Extrapolated:  -226.227658

Spin contamination: 9.560404 electrons
Showing only first 2 kpts
                      Up                     Down
 Kpt  Band  Eigenvalues  Occupancy  Eigenvalues  Occupancy
  0    88      5.10983    1.00000      5.10993    1.00000
  0    89      5.13444    1.00000      5.13483    1.00000
  0    90      7.28869    0.00000      7.28861    0.00000
  0    91      7.30636    0.00000      7.30631    0.00000

  1    88      5.13557    1.00000      5.13597    1.00000
  1    89      5.16486    1.00000      5.16504    1.00000
  1    90      7.23147    0.00000      7.23140    0.00000
  1    91      7.24367    0.00000      7.24361    0.00000

Fermi level: 6.25010

Gap: 1.972 eV
Transition (v -> c):
  (s=1, k=73, n=89, [0.08, -0.42, -0.12]) -> (s=1, k=57, n=90, [-0.08, -0.08, -0.12])
Writing to born-0.01-14y-.gpw (mode='all')