User:   madkru@i009.nifl.fysik.dtu.dk
Date:   Fri Apr  2 11:54:57 2021
Arch:   x86_64
Pid:    31381
Python: 3.8.6
gpaw:   /home/niflheim/madkru/venv_madkru/gpaw/gpaw (e6f0d78a31)
_gpaw:  /home/niflheim/madkru/venv_madkru/gpaw/build/lib.linux-x86_64-ivybridge-3.8/
        _gpaw.cpython-38-x86_64-linux-gnu.so (e6f0d78a31)
ase:    /home/niflheim/madkru/venv_madkru/ase/ase (version 3.22.0b1-4d5a73cb29)
numpy:  /home/modules/software/SciPy-bundle/2020.11-foss-2020b/lib/python3.8/site-packages/numpy (version 1.19.4)
scipy:  /home/modules/software/SciPy-bundle/2020.11-foss-2020b/lib/python3.8/site-packages/scipy (version 1.5.4)
units:  Angstrom and eV
cores: 64
OpenMP: False
OMP_NUM_THREADS: 1

Input parameters:
  convergence: {bands: occupied,
                density: 0.0001,
                eigenstates: 4e-08,
                energy: 0.0005,
                forces: 1e-06}
  kpts: [6 6 4]
  maxiter: 1000
  mode: {ecut: 600.0,
         gammacentered: False,
         name: pw}
  occupations: {fixmagmom: False,
                name: fermi-dirac,
                width: 0.001}
  symmetry: {point_group: False,
             time_reversal: False}

System changes: positions, numbers, cell, pbc, initial_charges, initial_magmoms

Initialize ...

O-setup:
  name: Oxygen
  id: 9b9d51c344dea68c822856295a461509
  Z: 8.0
  valence: 6
  core: 2
  charge: 0.0
  file: /home/modules/software/GPAW-setups/0.9.20000/O.LDA.gz
  compensation charges: gauss, rc=0.21, lmax=2
  cutoffs: 1.17(filt), 0.83(core),
  valence states:
                energy  radius
    2s(2.00)   -23.752   0.688
    2p(4.00)    -9.195   0.598
    *s           3.459   0.688
    *p          18.016   0.598
    *d           0.000   0.619

  Using partial waves for O as LCAO basis

Mn-setup:
  name: Manganese
  id: 0d715a8018be061a6e9ea6f2d364ac92
  Z: 25.0
  valence: 15
  core: 10
  charge: 0.0
  file: /home/modules/software/GPAW-setups/0.9.20000/Mn.LDA.gz
  compensation charges: gauss, rc=0.38, lmax=2
  cutoffs: 2.14(filt), 0.86(core),
  valence states:
                energy  radius
    3s(2.00)   -85.387   1.275
    4s(2.00)    -5.282   1.275
    3p(6.00)   -54.493   1.281
    4p(0.00)    -1.471   1.281
    3d(5.00)    -7.009   1.138
    *d          20.203   1.138

[...]

P-setup:
  name: Phosphorus
  id: a5561c299094968922a179ab894d2e2d
  Z: 15.0
  valence: 5
  core: 10
  charge: 0.0
  file: /home/modules/software/GPAW-setups/0.9.20000/P.LDA.gz
  compensation charges: gauss, rc=0.30, lmax=2
  cutoffs: 1.69(filt), 1.81(core),
  valence states:
                energy  radius
    3s(2.00)   -14.015   0.953
    3p(3.00)    -5.596   0.953
    *s          13.197   0.953
    *p          21.615   0.953
    *d           0.000   0.953

[...]

Li-setup:
  name: Lithium
  id: b73562207f97a71b6967473b66fe8b65
  Z: 3.0
  valence: 1
  core: 2
  charge: 0.0
  file: /home/modules/software/GPAW-setups/0.9.20000/Li.LDA.gz
  compensation charges: gauss, rc=0.33, lmax=2
  cutoffs: 1.91(filt), 2.55(core),
  valence states:
                energy  radius
    2s(1.00)    -2.874   1.058
    2p(0.00)    -1.126   1.058
    *s          24.338   1.058

  Using partial waves for Li as LCAO basis

Reference energy: -196157.275402

Spin-polarized calculation.
Magnetic moment: 0.000000

Convergence criteria:
  Maximum total energy change: 0.0005 eV / electron
  Maximum integral of absolute density change: 0.0001 electrons
  Maximum integral of absolute eigenstate change: 4e-08 eV^2
  Maximum change in atomic force: 1e-06 eV / Ang
  Maximum number of iterations: 1000

Symmetries present (total): 1

  ( 1  0  0)
  ( 0  1  0)
  ( 0  0  1)

144 k-points: 6 x 6 x 4 Monkhorst-Pack grid
144 k-points in the irreducible part of the Brillouin zone
       k-points in crystal coordinates                weights
   0:    -0.41666667   -0.41666667   -0.37500000          1/144
   1:    -0.41666667   -0.41666667   -0.12500000          1/144
   2:    -0.41666667   -0.41666667    0.12500000          1/144
   3:    -0.41666667   -0.41666667    0.37500000          1/144
   4:    -0.41666667   -0.25000000   -0.37500000          1/144
   5:    -0.41666667   -0.25000000   -0.12500000          1/144
   6:    -0.41666667   -0.25000000    0.12500000          1/144
   7:    -0.41666667   -0.25000000    0.37500000          1/144
   8:    -0.41666667   -0.08333333   -0.37500000          1/144
   9:    -0.41666667   -0.08333333   -0.12500000          1/144
          ...
 143:     0.41666667    0.41666667    0.37500000          1/144

Wave functions: Plane wave expansion
  Cutoff energy: 600.000 eV
  Number of coefficients (min, max): 10068, 10125
  Pulay-stress correction: 0.000000 eV/Ang^3 (de/decut=0.000000)
  Using FFTW library
  ScaLapack parameters: grid=1x1, blocksize=None
  Wavefunction extrapolation:
    Improved wavefunction reuse through dual PAW basis

  Fermi-Dirac: width=0.0010 eV

Eigensolver
   Davidson(niter=2)

Densities:
  Coarse grid: 60*35*27 grid
  Fine grid: 120*70*54 grid
  Total Charge: 0.000000

Density mixing:
  Method: difference
  Backend: pulay
  Linear mixing parameter: 0.05
  Mixing with 5 old densities
  Damping of long wave oscillations: 50

Hamiltonian:
  XC and Coulomb potentials evaluated on a 120*70*54 grid
  Using the LDA Exchange-Correlation functional

Total number of cores used: 64
Parallelization over k-points: 16
Domain decomposition: 2 x 2 x 1

Number of atoms: 28
Number of atomic orbitals: 148
Number of bands in calculation: 112
Number of valence electrons: 180
Bands to converge: occupied

... initialized

Initializing position-dependent things.

Density initialized from atomic densities
Creating initial wave functions:
  112 bands from LCAO basis set

    /|         OP              |
   / |O            O        O  |
  /  |       O            O  P |
 *   |O    Mn      O           |
 |   |          OLi          O |
 |   .P-O--------------Mn------.
 |  /          Li    O  Mn  O /
 | /Li O           PO        /
 |/       Mn                /
 *Li-----------------------*

Positions:
   0 O     -1.360678   -2.541161   -1.202221    ( 0.0000,  0.0000,  0.0000)
   1 O     -3.121941    2.976855    1.167242    ( 0.0000,  0.0000,  0.0000)
   2 O      2.107533    0.508090    1.540712    ( 0.0000,  0.0000,  0.0000)
   3 O      3.869373   -0.072395   -0.828750    ( 0.0000,  0.0000,  0.0000)
   4 O      2.107821    2.976875    1.540792    ( 0.0000,  0.0000,  0.0000)
   5 O      3.869084   -2.541141   -0.828671    ( 0.0000,  0.0000,  0.0000)
   6 O     -1.360390   -0.072375   -1.202141    ( 0.0000,  0.0000,  0.0000)
   7 O     -3.122230    0.508109    1.167321    ( 0.0000,  0.0000,  0.0000)
   8 O     -4.413461   -1.306992   -0.794251    ( 0.0000,  0.0000,  0.0000)
   9 O     -0.069585    1.742707    1.575662    ( 0.0000,  0.0000,  0.0000)
  10 O      5.160604    1.742707    1.132822    ( 0.0000,  0.0000,  0.0000)
  11 O      0.816728   -1.306992   -1.237091    ( 0.0000,  0.0000,  0.0000)
  12 Mn    -2.570809   -1.307302    0.247161    ( 0.0000,  0.0000,  1.0000)
  13 Mn    -1.912021    1.743016   -2.122906    ( 0.0000,  0.0000, -1.0000)
  14 Mn     3.317952    1.743017    0.091411    ( 0.0000,  0.0000, -1.0000)
  15 Mn     2.659164   -1.307302    2.461478    ( 0.0000,  0.0000,  1.0000)
  16 P     -0.620664   -1.306816   -1.828465    ( 0.0000,  0.0000,  0.0000)
  17 P     -3.862097    1.742530    0.541238    ( 0.0000,  0.0000,  0.0000)
  18 P      1.367807    1.742530    2.167036    ( 0.0000,  0.0000,  0.0000)
  19 P      4.609240   -1.306816   -0.202666    ( 0.0000,  0.0000,  0.0000)
  20 O     -0.646437   -1.306845    1.374751    ( 0.0000,  0.0000,  0.0000)
  21 O     -3.836504    1.742559   -0.995565    ( 0.0000,  0.0000,  0.0000)
  22 O      1.393580    1.742559   -1.036179    ( 0.0000,  0.0000,  0.0000)
  23 O      4.583647   -1.306845    1.334136    ( 0.0000,  0.0000,  0.0000)
  24 Li    -4.856429   -2.832143   -2.200714    ( 0.0000,  0.0000,  0.0000)
  25 Li     0.373571   -2.832143    0.169286    ( 0.0000,  0.0000,  0.0000)
  26 Li    -4.856429    0.217857   -2.200714    ( 0.0000,  0.0000,  0.0000)
  27 Li     0.363571    0.217857    0.169286    ( 0.0000,  0.0000,  0.0000)

Unit cell:
           periodic     x           y           z      points  spacing
  1. axis:    yes   10.460000    0.000000    0.000000    60     0.1743
  2. axis:    yes    0.000000    6.100000    0.000000    35     0.1743
  3. axis:    yes    0.000000    0.000000    4.740000    27     0.1756

  Lengths:  10.460000   6.100000   4.740000
  Angles:   90.000000  90.000000  90.000000

Effective grid spacing dv^(1/3) = 0.1747

                     log10-error:           total        iterations:
           time      wfs    density  force  energy       poisson  magmom
iter:   1  11:56:27                       -231.920407             +0.0000
iter:   2  11:56:47  -0.55  -0.94         -231.731007             +0.0015
iter:   3  11:57:08  -0.72  -0.98         -220.583920             +0.0019
iter:   4  11:57:29  -0.96  -1.20         -218.864001             +0.0006
iter:   5  11:57:50  -1.94  -1.36         -220.833164             +0.0004
iter:   6  11:58:11  -1.89  -1.53         -219.613373             -0.1494
iter:   7  11:58:32  -2.20  -1.65         -219.597024             +0.3489
iter:   8  11:58:53  -2.60  -1.94         -220.348776             +0.2549
iter:   9  11:59:14  -2.38  -1.87         -222.405141             +1.3949
iter:  10  11:59:35  -2.23  -1.92         -225.555874             +2.2472
iter:  11  11:59:55  -2.85  -1.87         -226.860027             +0.9042
iter:  12  12:00:16  -2.74  -1.87         -227.430792             -0.0718
iter:  13  12:00:37  -2.49  -1.87         -227.238441             -0.0343
iter:  14  12:00:58  -2.17  -1.92         -226.986748             -0.0155
iter:  15  12:01:19  -2.31  -2.05         -226.539657             -0.0142
iter:  16  12:01:40  -2.23  -2.11         -226.598663             -0.0044
iter:  17  12:02:00  -2.20  -2.18         -226.322010             -0.0008
iter:  18  12:02:21  -3.13  -2.53         -226.285791             -0.0008
iter:  19  12:02:42  -3.18  -2.57         -226.238615             -0.0003
iter:  20  12:03:03  -3.15  -2.71         -226.246387             -0.0001
iter:  21  12:03:24  -4.35  -2.97         -226.238170             -0.0001
iter:  22  12:03:45  -3.80  -3.01         -226.229158             -0.0000
iter:  23  12:04:05  -4.81  -3.12         -226.230934             -0.0000
iter:  24  12:04:26  -4.90  -3.20         -226.229884             -0.0000
iter:  25  12:04:47  -4.27  -3.35         -226.229631             -0.0000
iter:  26  12:05:08  -4.34  -3.44         -226.228282             -0.0000
iter:  27  12:05:28  -5.64  -3.79         -226.228120             -0.0000
iter:  28  12:05:49  -5.20  -3.85         -226.228038             +0.0000
iter:  29  12:06:10  -5.76  -4.01         -226.228066             -0.0000
iter:  30  12:06:30  -5.83  -4.14         -226.227959             -0.0000
iter:  31  12:06:51  -6.71  -4.36         -226.227963             -0.0000
iter:  32  12:07:17  -7.60  -4.42         -226.227964             -0.0000
iter:  33  12:07:37  -7.17  -4.46         -226.227961             -0.0000
iter:  34  12:08:03  -7.72  -4.55    -2.61-226.227960             -0.0000
iter:  35  12:08:29  -8.30  -4.62    -2.72-226.227960             -0.0000
iter:  36  12:08:55  -8.01  -4.68    -2.68-226.227958             +0.0000
iter:  37  12:09:16  -7.04  -4.75         -226.227960             +0.0000
iter:  38  12:09:42  -8.19  -4.85    -2.56-226.227959             +0.0000
iter:  39  12:10:07  -8.03  -4.88    -2.85-226.227958             -0.0000
iter:  40  12:10:33  -8.03  -4.97    -2.77-226.227957             -0.0000
iter:  41  12:10:59  -7.99  -5.13    -3.15-226.227957             -0.0000
iter:  42  12:11:25  -8.65  -5.23    -3.45-226.227957             -0.0000
iter:  43  12:11:51  -8.61  -5.29    -3.16-226.227957             -0.0000
iter:  44  12:12:17  -8.87  -5.34    -3.25-226.227957             -0.0000
iter:  45  12:12:43  -9.34  -5.44    -3.49-226.227957             -0.0000
iter:  46  12:13:08  -8.55  -5.52    -3.30-226.227957             +0.0000
iter:  47  12:13:34  -9.04  -5.69    -3.53-226.227957             +0.0000
iter:  48  12:14:00 -10.06  -5.85    -4.26-226.227957             -0.0000
iter:  49  12:14:26  -9.55  -5.89    -3.50-226.227957             -0.0000
iter:  50  12:14:52 -10.00  -6.18    -4.04-226.227957             -0.0000
iter:  51  12:15:18 -11.03  -6.31    -4.42-226.227957             -0.0000
iter:  52  12:15:44 -10.15  -6.35    -4.03-226.227957             +0.0000
iter:  53  12:16:10 -10.50  -6.48    -4.07-226.227957             -0.0000
iter:  54  12:16:36 -11.37  -6.77    -4.37-226.227957             +0.0000
iter:  55  12:17:02 -12.01  -6.85    -4.60-226.227957             -0.0000
iter:  56  12:17:28 -12.01  -6.89    -4.86-226.227957             -0.0000
iter:  57  12:17:54 -11.61  -6.99    -4.92-226.227957             +0.0000
iter:  58  12:18:19 -12.50  -7.10    -5.35-226.227957             +0.0000
iter:  59  12:18:45 -11.92  -7.16    -4.94-226.227957             +0.0000
iter:  60  12:19:11 -12.58  -7.45    -5.37-226.227957             +0.0000
iter:  61  12:19:37 -12.74  -7.53    -5.12-226.227957             -0.0000
iter:  62  12:20:03 -13.50  -7.66    -5.81-226.227957             -0.0000
iter:  63  12:20:29 -13.75  -7.73    -5.75-226.227957             +0.0000
iter:  64  12:20:55 -13.53  -7.77    -5.39-226.227957             +0.0000
iter:  65  12:21:21 -14.11  -7.91    -5.76-226.227957             +0.0000
iter:  66  12:21:46 -13.47  -7.96    -5.70-226.227957             +0.0000
iter:  67  12:22:12 -14.27  -8.00    -5.91-226.227957             +0.0000
iter:  68  12:22:38 -13.59  -8.08    -5.73-226.227957             -0.0000
iter:  69  12:23:04 -14.57  -8.35    -6.20-226.227957             -0.0000

Converged after 69 iterations.

Dipole moment: (10.689980, 1.411354, -6.269934) |e|*Ang

Total magnetic moment: (0.000000, 0.000000, -0.000000)
Local magnetic moments:
   0 O  ( 0.000000,  0.000000, -0.000518)
   1 O  ( 0.000000,  0.000000,  0.000534)
   2 O  ( 0.000000,  0.000000,  0.000554)
   3 O  ( 0.000000,  0.000000, -0.000553)
   4 O  ( 0.000000,  0.000000,  0.000518)
   5 O  ( 0.000000,  0.000000, -0.000533)
   6 O  ( 0.000000,  0.000000, -0.000521)
   7 O  ( 0.000000,  0.000000,  0.000554)
   8 O  ( 0.000000,  0.000000,  0.028731)
   9 O  ( 0.000000,  0.000000, -0.028746)
  10 O  ( 0.000000,  0.000000, -0.028654)
  11 O  ( 0.000000,  0.000000,  0.028657)
  12 Mn ( 0.000000,  0.000000,  4.448107)
  13 Mn ( 0.000000,  0.000000, -4.448171)
  14 Mn ( 0.000000,  0.000000, -4.448214)
  15 Mn ( 0.000000,  0.000000,  4.448310)
  16 P  ( 0.000000,  0.000000,  0.001568)
  17 P  ( 0.000000,  0.000000, -0.001549)
  18 P  ( 0.000000,  0.000000, -0.001548)
  19 P  ( 0.000000,  0.000000,  0.001538)
  20 O  ( 0.000000,  0.000000,  0.025321)
  21 O  ( 0.000000,  0.000000, -0.025314)
  22 O  ( 0.000000,  0.000000, -0.025309)
  23 O  ( 0.000000,  0.000000,  0.025298)
  24 Li ( 0.000000,  0.000000, -0.000000)
  25 Li ( 0.000000,  0.000000,  0.000000)
  26 Li ( 0.000000,  0.000000, -0.000000)
  27 Li ( 0.000000,  0.000000, -0.000014)

Energy contributions relative to reference atoms: (reference = -196157.275402)

Kinetic:       +217.352009
Potential:     -195.237093
External:        +0.000000
XC:            -250.384025
Entropy (-ST):   -0.000000
Local:           +2.041153
Free energy:   -226.227957
Extrapolated:  -226.227957

Spin contamination: 9.560410 electrons
Showing only first 2 kpts
                      Up                     Down
 Kpt  Band  Eigenvalues  Occupancy  Eigenvalues  Occupancy
  0    88      5.10966    1.00000      5.10913    1.00000
  0    89      5.13454    1.00000      5.13519    1.00000
  0    90      7.28817    0.00000      7.28736    0.00000
  0    91      7.30662    0.00000      7.30780    0.00000

  1    88      5.13547    1.00000      5.13490    1.00000
  1    89      5.16488    1.00000      5.16564    1.00000
  1    90      7.23062    0.00000      7.22974    0.00000
  1    91      7.24425    0.00000      7.24553    0.00000

Fermi level: 6.19951

Gap: 1.971 eV
Transition (v -> c):
  (s=1, k=74, n=89, [0.08, -0.42, 0.12]) -> (s=0, k=85, n=90, [0.08, 0.08, -0.12])
Writing to born-0.01-27x-.gpw (mode='all')