User:   madkru@i009.nifl.fysik.dtu.dk
Date:   Fri Apr  2 02:22:37 2021
Arch:   x86_64
Pid:    31381
Python: 3.8.6
gpaw:   /home/niflheim/madkru/venv_madkru/gpaw/gpaw (e6f0d78a31)
_gpaw:  /home/niflheim/madkru/venv_madkru/gpaw/build/lib.linux-x86_64-ivybridge-3.8/
        _gpaw.cpython-38-x86_64-linux-gnu.so (e6f0d78a31)
ase:    /home/niflheim/madkru/venv_madkru/ase/ase (version 3.22.0b1-4d5a73cb29)
numpy:  /home/modules/software/SciPy-bundle/2020.11-foss-2020b/lib/python3.8/site-packages/numpy (version 1.19.4)
scipy:  /home/modules/software/SciPy-bundle/2020.11-foss-2020b/lib/python3.8/site-packages/scipy (version 1.5.4)
units:  Angstrom and eV
cores: 64
OpenMP: False
OMP_NUM_THREADS: 1

Input parameters:
  convergence: {bands: occupied,
                density: 0.0001,
                eigenstates: 4e-08,
                energy: 0.0005,
                forces: 1e-06}
  kpts: [6 6 4]
  maxiter: 1000
  mode: {ecut: 600.0,
         gammacentered: False,
         name: pw}
  occupations: {fixmagmom: False,
                name: fermi-dirac,
                width: 0.001}
  symmetry: {point_group: False,
             time_reversal: False}

System changes: positions, numbers, cell, pbc, initial_charges, initial_magmoms

Initialize ...

O-setup:
  name: Oxygen
  id: 9b9d51c344dea68c822856295a461509
  Z: 8.0
  valence: 6
  core: 2
  charge: 0.0
  file: /home/modules/software/GPAW-setups/0.9.20000/O.LDA.gz
  compensation charges: gauss, rc=0.21, lmax=2
  cutoffs: 1.17(filt), 0.83(core),
  valence states:
                energy  radius
    2s(2.00)   -23.752   0.688
    2p(4.00)    -9.195   0.598
    *s           3.459   0.688
    *p          18.016   0.598
    *d           0.000   0.619

  Using partial waves for O as LCAO basis

Mn-setup:
  name: Manganese
  id: 0d715a8018be061a6e9ea6f2d364ac92
  Z: 25.0
  valence: 15
  core: 10
  charge: 0.0
  file: /home/modules/software/GPAW-setups/0.9.20000/Mn.LDA.gz
  compensation charges: gauss, rc=0.38, lmax=2
  cutoffs: 2.14(filt), 0.86(core),
  valence states:
                energy  radius
    3s(2.00)   -85.387   1.275
    4s(2.00)    -5.282   1.275
    3p(6.00)   -54.493   1.281
    4p(0.00)    -1.471   1.281
    3d(5.00)    -7.009   1.138
    *d          20.203   1.138

[...]

P-setup:
  name: Phosphorus
  id: a5561c299094968922a179ab894d2e2d
  Z: 15.0
  valence: 5
  core: 10
  charge: 0.0
  file: /home/modules/software/GPAW-setups/0.9.20000/P.LDA.gz
  compensation charges: gauss, rc=0.30, lmax=2
  cutoffs: 1.69(filt), 1.81(core),
  valence states:
                energy  radius
    3s(2.00)   -14.015   0.953
    3p(3.00)    -5.596   0.953
    *s          13.197   0.953
    *p          21.615   0.953
    *d           0.000   0.953

[...]

Li-setup:
  name: Lithium
  id: b73562207f97a71b6967473b66fe8b65
  Z: 3.0
  valence: 1
  core: 2
  charge: 0.0
  file: /home/modules/software/GPAW-setups/0.9.20000/Li.LDA.gz
  compensation charges: gauss, rc=0.33, lmax=2
  cutoffs: 1.91(filt), 2.55(core),
  valence states:
                energy  radius
    2s(1.00)    -2.874   1.058
    2p(0.00)    -1.126   1.058
    *s          24.338   1.058

  Using partial waves for Li as LCAO basis

Reference energy: -196157.275402

Spin-polarized calculation.
Magnetic moment: 0.000000

Convergence criteria:
  Maximum total energy change: 0.0005 eV / electron
  Maximum integral of absolute density change: 0.0001 electrons
  Maximum integral of absolute eigenstate change: 4e-08 eV^2
  Maximum change in atomic force: 1e-06 eV / Ang
  Maximum number of iterations: 1000

Symmetries present (total): 1

  ( 1  0  0)
  ( 0  1  0)
  ( 0  0  1)

144 k-points: 6 x 6 x 4 Monkhorst-Pack grid
144 k-points in the irreducible part of the Brillouin zone
       k-points in crystal coordinates                weights
   0:    -0.41666667   -0.41666667   -0.37500000          1/144
   1:    -0.41666667   -0.41666667   -0.12500000          1/144
   2:    -0.41666667   -0.41666667    0.12500000          1/144
   3:    -0.41666667   -0.41666667    0.37500000          1/144
   4:    -0.41666667   -0.25000000   -0.37500000          1/144
   5:    -0.41666667   -0.25000000   -0.12500000          1/144
   6:    -0.41666667   -0.25000000    0.12500000          1/144
   7:    -0.41666667   -0.25000000    0.37500000          1/144
   8:    -0.41666667   -0.08333333   -0.37500000          1/144
   9:    -0.41666667   -0.08333333   -0.12500000          1/144
          ...
 143:     0.41666667    0.41666667    0.37500000          1/144

Wave functions: Plane wave expansion
  Cutoff energy: 600.000 eV
  Number of coefficients (min, max): 10068, 10125
  Pulay-stress correction: 0.000000 eV/Ang^3 (de/decut=0.000000)
  Using FFTW library
  ScaLapack parameters: grid=1x1, blocksize=None
  Wavefunction extrapolation:
    Improved wavefunction reuse through dual PAW basis

  Fermi-Dirac: width=0.0010 eV

Eigensolver
   Davidson(niter=2)

Densities:
  Coarse grid: 60*35*27 grid
  Fine grid: 120*70*54 grid
  Total Charge: 0.000000

Density mixing:
  Method: difference
  Backend: pulay
  Linear mixing parameter: 0.05
  Mixing with 5 old densities
  Damping of long wave oscillations: 50

Hamiltonian:
  XC and Coulomb potentials evaluated on a 120*70*54 grid
  Using the LDA Exchange-Correlation functional

Total number of cores used: 64
Parallelization over k-points: 16
Domain decomposition: 2 x 2 x 1

Number of atoms: 28
Number of atomic orbitals: 148
Number of bands in calculation: 112
Number of valence electrons: 180
Bands to converge: occupied

... initialized

Initializing position-dependent things.

Density initialized from atomic densities
Creating initial wave functions:
  112 bands from LCAO basis set

    /|         OP              |
   / |O            O        O  |
  /  |       O            O  P |
 *   |O    Mn      O           |
 |   |          OLi          O |
 |   .P-O--------------Mn------.
 |  /          Li    O  Mn  O /
 | /Li O           PO        /
 |/       Mn                /
 *Li-----------------------*

Positions:
   0 O     -1.360678   -2.541161   -1.202221    ( 0.0000,  0.0000,  0.0000)
   1 O     -3.121941    2.976855    1.167242    ( 0.0000,  0.0000,  0.0000)
   2 O      2.107533    0.508090    1.540712    ( 0.0000,  0.0000,  0.0000)
   3 O      3.869373   -0.072395   -0.828750    ( 0.0000,  0.0000,  0.0000)
   4 O      2.107821    2.976875    1.540792    ( 0.0000,  0.0000,  0.0000)
   5 O      3.869084   -2.541141   -0.828671    ( 0.0000,  0.0000,  0.0000)
   6 O     -1.360390   -0.072375   -1.202141    ( 0.0000,  0.0000,  0.0000)
   7 O     -3.122230    0.508109    1.167321    ( 0.0000,  0.0000,  0.0000)
   8 O     -4.413461   -1.306992   -0.794251    ( 0.0000,  0.0000,  0.0000)
   9 O     -0.069585    1.742707    1.575662    ( 0.0000,  0.0000,  0.0000)
  10 O      5.160604    1.742707    1.132822    ( 0.0000,  0.0000,  0.0000)
  11 O      0.816728   -1.306992   -1.237091    ( 0.0000,  0.0000,  0.0000)
  12 Mn    -2.570809   -1.307302    0.247161    ( 0.0000,  0.0000,  1.0000)
  13 Mn    -1.912021    1.743016   -2.122906    ( 0.0000,  0.0000, -1.0000)
  14 Mn     3.317952    1.743017    0.091411    ( 0.0000,  0.0000, -1.0000)
  15 Mn     2.659164   -1.307302    2.461478    ( 0.0000,  0.0000,  1.0000)
  16 P     -0.620664   -1.306816   -1.828465    ( 0.0000,  0.0000,  0.0000)
  17 P     -3.862097    1.742530    0.541238    ( 0.0000,  0.0000,  0.0000)
  18 P      1.367807    1.742530    2.167036    ( 0.0000,  0.0000,  0.0000)
  19 P      4.609240   -1.306816   -0.202666    ( 0.0000,  0.0000,  0.0000)
  20 O     -0.646437   -1.306845    1.374751    ( 0.0000,  0.0000,  0.0000)
  21 O     -3.836504    1.742559   -0.995565    ( 0.0000,  0.0000,  0.0000)
  22 O      1.393580    1.742559   -1.036179    ( 0.0000,  0.0000,  0.0000)
  23 O      4.583647   -1.306845    1.334136    ( 0.0000,  0.0000,  0.0000)
  24 Li    -4.846429   -2.832143   -2.200714    ( 0.0000,  0.0000,  0.0000)
  25 Li     0.373571   -2.832143    0.169286    ( 0.0000,  0.0000,  0.0000)
  26 Li    -4.856429    0.217857   -2.200714    ( 0.0000,  0.0000,  0.0000)
  27 Li     0.373571    0.217857    0.169286    ( 0.0000,  0.0000,  0.0000)

Unit cell:
           periodic     x           y           z      points  spacing
  1. axis:    yes   10.460000    0.000000    0.000000    60     0.1743
  2. axis:    yes    0.000000    6.100000    0.000000    35     0.1743
  3. axis:    yes    0.000000    0.000000    4.740000    27     0.1756

  Lengths:  10.460000   6.100000   4.740000
  Angles:   90.000000  90.000000  90.000000

Effective grid spacing dv^(1/3) = 0.1747

                     log10-error:           total        iterations:
           time      wfs    density  force  energy       poisson  magmom
iter:   1  02:24:06                       -231.920413             +0.0000
iter:   2  02:24:27  -0.55  -0.94         -231.731033             +0.0087
iter:   3  02:24:47  -0.72  -0.98         -220.585478             +0.0109
iter:   4  02:25:08  -0.95  -1.20         -218.867282             +0.0036
iter:   5  02:25:29  -1.93  -1.36         -221.856858             +0.0023
iter:   6  02:25:49  -2.00  -1.47         -220.632939             +0.0011
iter:   7  02:26:10  -2.11  -1.66         -224.613108             +0.0006
iter:   8  02:26:31  -1.94  -1.87         -226.945691             +0.0001
iter:   9  02:26:51  -2.35  -1.83         -227.843385             +0.0000
iter:  10  02:27:12  -2.72  -1.74         -227.328938             -0.0000
iter:  11  02:27:33  -1.83  -1.84         -226.673916             -0.0000
iter:  12  02:27:54  -1.97  -2.05         -226.617986             -0.0000
iter:  13  02:28:14  -2.13  -2.33         -226.459264             +0.0000
iter:  14  02:28:35  -3.37  -2.32         -226.425381             +0.0000
iter:  15  02:28:56  -2.86  -2.43         -226.336290             +0.0000
iter:  16  02:29:16  -2.51  -2.51         -226.233695             +0.0000
iter:  17  02:29:37  -3.57  -2.80         -226.234302             +0.0000
iter:  18  02:29:58  -3.52  -2.86         -226.232505             -0.0000
iter:  19  02:30:18  -4.20  -3.11         -226.229791             -0.0000
iter:  20  02:30:39  -4.30  -3.28         -226.228471             +0.0000
iter:  21  02:31:00  -4.51  -3.32         -226.228416             -0.0000
iter:  22  02:31:21  -5.03  -3.39         -226.228044             +0.0000
iter:  23  02:31:41  -6.03  -3.52         -226.228025             +0.0000
iter:  24  02:32:02  -5.39  -3.57         -226.228048             +0.0000
iter:  25  02:32:23  -6.02  -3.67         -226.228019             +0.0000
iter:  26  02:32:44  -5.67  -3.74         -226.228070             +0.0000
iter:  27  02:33:04  -5.78  -3.97         -226.227974             +0.0000
iter:  28  02:33:25  -6.81  -4.12         -226.227974             +0.0000
iter:  29  02:33:46  -6.62  -4.23         -226.227959             -0.0000
iter:  30  02:34:06  -6.71  -4.43         -226.227962             +0.0000
iter:  31  02:34:27  -7.33  -4.45         -226.227958             -0.0000
iter:  32  02:34:53  -7.70  -4.49         -226.227958             -0.0000
iter:  33  02:35:19  -7.95  -4.50    -3.06-226.227958             -0.0000
iter:  34  02:35:45  -7.85  -4.53    -2.72-226.227957             +0.0000
iter:  35  02:36:05  -7.03  -4.63         -226.227962             -0.0000
iter:  36  02:36:31  -7.46  -4.72    -2.39-226.227958             -0.0000
iter:  37  02:36:57  -8.02  -4.87    -3.29-226.227958             -0.0000
iter:  38  02:37:23  -7.95  -4.92    -2.72-226.227958             -0.0000
iter:  39  02:37:49  -8.39  -5.07    -3.16-226.227957             -0.0000
iter:  40  02:38:15  -8.98  -5.12    -3.43-226.227957             -0.0000
iter:  41  02:38:41  -8.53  -5.16    -3.00-226.227957             -0.0000
iter:  42  02:39:06  -8.43  -5.20    -3.06-226.227957             -0.0000
iter:  43  02:39:32  -9.22  -5.30    -3.77-226.227957             -0.0000
iter:  44  02:39:58  -8.36  -5.35    -3.05-226.227957             +0.0000
iter:  45  02:40:24  -9.30  -5.44    -3.40-226.227957             +0.0000
iter:  46  02:40:50  -8.66  -5.55    -3.10-226.227957             +0.0000
iter:  47  02:41:16  -9.42  -5.62    -3.40-226.227957             -0.0000
iter:  48  02:41:42  -9.64  -6.20    -3.88-226.227957             -0.0000
iter:  49  02:42:07 -10.54  -6.26    -3.97-226.227957             -0.0000
iter:  50  02:42:33 -10.45  -6.38    -4.22-226.227957             +0.0000
iter:  51  02:42:59 -11.08  -6.55    -4.56-226.227957             +0.0000
iter:  52  02:43:25 -11.77  -6.62    -4.87-226.227957             +0.0000
iter:  53  02:43:51 -12.24  -6.65    -4.99-226.227957             +0.0000
iter:  54  02:44:17 -11.07  -6.67    -4.46-226.227957             -0.0000
iter:  55  02:44:42 -12.05  -7.07    -4.83-226.227957             +0.0000
iter:  56  02:45:08 -12.63  -7.37    -5.36-226.227957             -0.0000
iter:  57  02:45:34 -12.49  -7.44    -5.10-226.227957             -0.0000
iter:  58  02:46:00 -12.44  -7.57    -5.30-226.227957             +0.0000
iter:  59  02:46:26 -13.81  -7.71    -5.79-226.227957             -0.0000
iter:  60  02:46:52 -13.27  -7.75    -5.44-226.227957             -0.0000
iter:  61  02:47:17 -13.16  -7.79    -5.50-226.227957             -0.0000
iter:  62  02:47:43 -14.59  -7.96    -6.23-226.227957             -0.0000

Converged after 62 iterations.

Dipole moment: (10.674687, 1.411586, -6.269510) |e|*Ang

Total magnetic moment: (0.000000, 0.000000, -0.000000)
Local magnetic moments:
   0 O  ( 0.000000,  0.000000, -0.000519)
   1 O  ( 0.000000,  0.000000,  0.000517)
   2 O  ( 0.000000,  0.000000,  0.000537)
   3 O  ( 0.000000,  0.000000, -0.000554)
   4 O  ( 0.000000,  0.000000,  0.000517)
   5 O  ( 0.000000,  0.000000, -0.000550)
   6 O  ( 0.000000,  0.000000, -0.000539)
   7 O  ( 0.000000,  0.000000,  0.000553)
   8 O  ( 0.000000,  0.000000,  0.028737)
   9 O  ( 0.000000,  0.000000, -0.028740)
  10 O  ( 0.000000,  0.000000, -0.028648)
  11 O  ( 0.000000,  0.000000,  0.028663)
  12 Mn ( 0.000000,  0.000000,  4.448092)
  13 Mn ( 0.000000,  0.000000, -4.448185)
  14 Mn ( 0.000000,  0.000000, -4.448229)
  15 Mn ( 0.000000,  0.000000,  4.448295)
  16 P  ( 0.000000,  0.000000,  0.001564)
  17 P  ( 0.000000,  0.000000, -0.001553)
  18 P  ( 0.000000,  0.000000, -0.001552)
  19 P  ( 0.000000,  0.000000,  0.001534)
  20 O  ( 0.000000,  0.000000,  0.025322)
  21 O  ( 0.000000,  0.000000, -0.025312)
  22 O  ( 0.000000,  0.000000, -0.025307)
  23 O  ( 0.000000,  0.000000,  0.025300)
  24 Li ( 0.000000,  0.000000,  0.000014)
  25 Li ( 0.000000,  0.000000,  0.000000)
  26 Li ( 0.000000,  0.000000, -0.000000)
  27 Li ( 0.000000,  0.000000,  0.000000)

Energy contributions relative to reference atoms: (reference = -196157.275402)

Kinetic:       +217.351952
Potential:     -195.237026
External:        +0.000000
XC:            -250.384027
Entropy (-ST):   -0.000000
Local:           +2.041143
Free energy:   -226.227957
Extrapolated:  -226.227957

Spin contamination: 9.560410 electrons
Showing only first 2 kpts
                      Up                     Down
 Kpt  Band  Eigenvalues  Occupancy  Eigenvalues  Occupancy
  0    88      5.10968    1.00000      5.10911    1.00000
  0    89      5.13460    1.00000      5.13514    1.00000
  0    90      7.28822    0.00000      7.28730    0.00000
  0    91      7.30674    0.00000      7.30769    0.00000

  1    88      5.13552    1.00000      5.13484    1.00000
  1    89      5.16497    1.00000      5.16555    1.00000
  1    90      7.23074    0.00000      7.22961    0.00000
  1    91      7.24444    0.00000      7.24536    0.00000

Fermi level: 6.31334

Gap: 1.971 eV
Transition (v -> c):
  (s=0, k=73, n=89, [0.08, -0.42, -0.12]) -> (s=1, k=57, n=90, [-0.08, -0.08, -0.12])
Writing to born-0.01-24x+.gpw (mode='all')