User:   madkru@g043.nifl.fysik.dtu.dk
Date:   Wed Mar 31 01:27:38 2021
Arch:   x86_64
Pid:    39387
Python: 3.8.6
gpaw:   /home/niflheim/madkru/venv_madkru/gpaw/gpaw (e6f0d78a31)
_gpaw:  /home/niflheim/madkru/venv_madkru/gpaw/build/lib.linux-x86_64-sandybridge-3.8/
        _gpaw.cpython-38-x86_64-linux-gnu.so (e6f0d78a31)
ase:    /home/niflheim/madkru/venv_madkru/ase/ase (version 3.22.0b1-4d5a73cb29)
numpy:  /home/modules/software/SciPy-bundle/2020.11-foss-2020b/lib/python3.8/site-packages/numpy (version 1.19.4)
scipy:  /home/modules/software/SciPy-bundle/2020.11-foss-2020b/lib/python3.8/site-packages/scipy (version 1.5.4)
units:  Angstrom and eV
cores: 64
OpenMP: False
OMP_NUM_THREADS: 1

Input parameters:
  convergence: {bands: occupied,
                density: 0.0001,
                eigenstates: 4e-08,
                energy: 0.0005,
                forces: 1e-06}
  kpts: [6 6 4]
  maxiter: 1000
  mode: {ecut: 600.0,
         gammacentered: False,
         name: pw}
  occupations: {fixmagmom: False,
                name: fermi-dirac,
                width: 0.001}
  symmetry: {point_group: False,
             time_reversal: False}

System changes: positions, numbers, cell, pbc, initial_charges, initial_magmoms

Initialize ...

O-setup:
  name: Oxygen
  id: 9b9d51c344dea68c822856295a461509
  Z: 8.0
  valence: 6
  core: 2
  charge: 0.0
  file: /home/modules/software/GPAW-setups/0.9.20000/O.LDA.gz
  compensation charges: gauss, rc=0.21, lmax=2
  cutoffs: 1.17(filt), 0.83(core),
  valence states:
                energy  radius
    2s(2.00)   -23.752   0.688
    2p(4.00)    -9.195   0.598
    *s           3.459   0.688
    *p          18.016   0.598
    *d           0.000   0.619

  Using partial waves for O as LCAO basis

Mn-setup:
  name: Manganese
  id: 0d715a8018be061a6e9ea6f2d364ac92
  Z: 25.0
  valence: 15
  core: 10
  charge: 0.0
  file: /home/modules/software/GPAW-setups/0.9.20000/Mn.LDA.gz
  compensation charges: gauss, rc=0.38, lmax=2
  cutoffs: 2.14(filt), 0.86(core),
  valence states:
                energy  radius
    3s(2.00)   -85.387   1.275
    4s(2.00)    -5.282   1.275
    3p(6.00)   -54.493   1.281
    4p(0.00)    -1.471   1.281
    3d(5.00)    -7.009   1.138
    *d          20.203   1.138

[...]

P-setup:
  name: Phosphorus
  id: a5561c299094968922a179ab894d2e2d
  Z: 15.0
  valence: 5
  core: 10
  charge: 0.0
  file: /home/modules/software/GPAW-setups/0.9.20000/P.LDA.gz
  compensation charges: gauss, rc=0.30, lmax=2
  cutoffs: 1.69(filt), 1.81(core),
  valence states:
                energy  radius
    3s(2.00)   -14.015   0.953
    3p(3.00)    -5.596   0.953
    *s          13.197   0.953
    *p          21.615   0.953
    *d           0.000   0.953

[...]

Li-setup:
  name: Lithium
  id: b73562207f97a71b6967473b66fe8b65
  Z: 3.0
  valence: 1
  core: 2
  charge: 0.0
  file: /home/modules/software/GPAW-setups/0.9.20000/Li.LDA.gz
  compensation charges: gauss, rc=0.33, lmax=2
  cutoffs: 1.91(filt), 2.55(core),
  valence states:
                energy  radius
    2s(1.00)    -2.874   1.058
    2p(0.00)    -1.126   1.058
    *s          24.338   1.058

  Using partial waves for Li as LCAO basis

Reference energy: -196157.275402

Spin-polarized calculation.
Magnetic moment: 0.000000

Convergence criteria:
  Maximum total energy change: 0.0005 eV / electron
  Maximum integral of absolute density change: 0.0001 electrons
  Maximum integral of absolute eigenstate change: 4e-08 eV^2
  Maximum change in atomic force: 1e-06 eV / Ang
  Maximum number of iterations: 1000

Symmetries present (total): 1

  ( 1  0  0)
  ( 0  1  0)
  ( 0  0  1)

144 k-points: 6 x 6 x 4 Monkhorst-Pack grid
144 k-points in the irreducible part of the Brillouin zone
       k-points in crystal coordinates                weights
   0:    -0.41666667   -0.41666667   -0.37500000          1/144
   1:    -0.41666667   -0.41666667   -0.12500000          1/144
   2:    -0.41666667   -0.41666667    0.12500000          1/144
   3:    -0.41666667   -0.41666667    0.37500000          1/144
   4:    -0.41666667   -0.25000000   -0.37500000          1/144
   5:    -0.41666667   -0.25000000   -0.12500000          1/144
   6:    -0.41666667   -0.25000000    0.12500000          1/144
   7:    -0.41666667   -0.25000000    0.37500000          1/144
   8:    -0.41666667   -0.08333333   -0.37500000          1/144
   9:    -0.41666667   -0.08333333   -0.12500000          1/144
          ...
 143:     0.41666667    0.41666667    0.37500000          1/144

Wave functions: Plane wave expansion
  Cutoff energy: 600.000 eV
  Number of coefficients (min, max): 10068, 10125
  Pulay-stress correction: 0.000000 eV/Ang^3 (de/decut=0.000000)
  Using FFTW library
  ScaLapack parameters: grid=1x1, blocksize=None
  Wavefunction extrapolation:
    Improved wavefunction reuse through dual PAW basis

  Fermi-Dirac: width=0.0010 eV

Eigensolver
   Davidson(niter=2)

Densities:
  Coarse grid: 60*35*27 grid
  Fine grid: 120*70*54 grid
  Total Charge: 0.000000

Density mixing:
  Method: difference
  Backend: pulay
  Linear mixing parameter: 0.05
  Mixing with 5 old densities
  Damping of long wave oscillations: 50

Hamiltonian:
  XC and Coulomb potentials evaluated on a 120*70*54 grid
  Using the LDA Exchange-Correlation functional

Total number of cores used: 64
Parallelization over k-points: 16
Domain decomposition: 2 x 2 x 1

Number of atoms: 28
Number of atomic orbitals: 148
Number of bands in calculation: 112
Number of valence electrons: 180
Bands to converge: occupied

... initialized

Initializing position-dependent things.

Density initialized from atomic densities
Creating initial wave functions:
  112 bands from LCAO basis set

    /|         OP              |
   / |O            O        O  |
  /  |       O            O  P |
 *   |O    Mn      O           |
 |   |          OLi          O |
 |   .P-O--------------Mn------.
 |  /          Li    O  Mn  O /
 | /Li O           PO        /
 |/       Mn                /
 *Li-----------------------*

Positions:
   0 O     -1.360678   -2.541161   -1.202221    ( 0.0000,  0.0000,  0.0000)
   1 O     -3.121941    2.976855    1.167242    ( 0.0000,  0.0000,  0.0000)
   2 O      2.107533    0.508090    1.540712    ( 0.0000,  0.0000,  0.0000)
   3 O      3.869373   -0.072395   -0.828750    ( 0.0000,  0.0000,  0.0000)
   4 O      2.107821    2.976875    1.540792    ( 0.0000,  0.0000,  0.0000)
   5 O      3.869084   -2.541141   -0.828671    ( 0.0000,  0.0000,  0.0000)
   6 O     -1.360390   -0.072375   -1.202141    ( 0.0000,  0.0000,  0.0000)
   7 O     -3.122230    0.508109    1.167321    ( 0.0000,  0.0000,  0.0000)
   8 O     -4.413461   -1.306992   -0.794251    ( 0.0000,  0.0000,  0.0000)
   9 O     -0.069585    1.742707    1.575662    ( 0.0000,  0.0000,  0.0000)
  10 O      5.160604    1.742707    1.132822    ( 0.0000,  0.0000,  0.0000)
  11 O      0.816728   -1.306992   -1.237091    ( 0.0000,  0.0000,  0.0000)
  12 Mn    -2.570809   -1.307302    0.247161    ( 0.0000,  0.0000,  1.0000)
  13 Mn    -1.912021    1.743016   -2.122906    ( 0.0000,  0.0000, -1.0000)
  14 Mn     3.317952    1.743017    0.091411    ( 0.0000,  0.0000, -1.0000)
  15 Mn     2.659164   -1.317302    2.461478    ( 0.0000,  0.0000,  1.0000)
  16 P     -0.620664   -1.306816   -1.828465    ( 0.0000,  0.0000,  0.0000)
  17 P     -3.862097    1.742530    0.541238    ( 0.0000,  0.0000,  0.0000)
  18 P      1.367807    1.742530    2.167036    ( 0.0000,  0.0000,  0.0000)
  19 P      4.609240   -1.306816   -0.202666    ( 0.0000,  0.0000,  0.0000)
  20 O     -0.646437   -1.306845    1.374751    ( 0.0000,  0.0000,  0.0000)
  21 O     -3.836504    1.742559   -0.995565    ( 0.0000,  0.0000,  0.0000)
  22 O      1.393580    1.742559   -1.036179    ( 0.0000,  0.0000,  0.0000)
  23 O      4.583647   -1.306845    1.334136    ( 0.0000,  0.0000,  0.0000)
  24 Li    -4.856429   -2.832143   -2.200714    ( 0.0000,  0.0000,  0.0000)
  25 Li     0.373571   -2.832143    0.169286    ( 0.0000,  0.0000,  0.0000)
  26 Li    -4.856429    0.217857   -2.200714    ( 0.0000,  0.0000,  0.0000)
  27 Li     0.373571    0.217857    0.169286    ( 0.0000,  0.0000,  0.0000)

Unit cell:
           periodic     x           y           z      points  spacing
  1. axis:    yes   10.460000    0.000000    0.000000    60     0.1743
  2. axis:    yes    0.000000    6.100000    0.000000    35     0.1743
  3. axis:    yes    0.000000    0.000000    4.740000    27     0.1756

  Lengths:  10.460000   6.100000   4.740000
  Angles:   90.000000  90.000000  90.000000

Effective grid spacing dv^(1/3) = 0.1747

                     log10-error:           total        iterations:
           time      wfs    density  force  energy       poisson  magmom
iter:   1  01:29:13                       -231.920268             +0.0000
iter:   2  01:29:34  -0.55  -0.94         -231.731257             +0.0049
iter:   3  01:29:55  -0.72  -0.98         -220.584560             +0.0062
iter:   4  01:30:17  -0.96  -1.20         -218.866287             +0.0020
iter:   5  01:30:38  -1.94  -1.36         -221.220002             +0.0013
iter:   6  01:30:59  -1.98  -1.50         -219.928920             +0.0007
iter:   7  01:31:20  -2.23  -1.68         -222.552679             +0.0889
iter:   8  01:31:42  -2.76  -1.90         -219.709110             +0.1156
iter:   9  01:32:03  -2.33  -1.95         -223.741940             +0.7127
iter:  10  01:32:24  -2.30  -1.89         -226.313027             +0.2816
iter:  11  01:32:46  -2.58  -1.88         -227.262257             -0.0254
iter:  12  01:33:07  -2.15  -1.82         -226.884780             -0.0028
iter:  13  01:33:28  -2.80  -1.97         -226.734850             -0.0057
iter:  14  01:33:49  -3.00  -2.03         -226.627581             -0.0017
iter:  15  01:34:11  -2.95  -2.04         -226.643670             -0.0005
iter:  16  01:34:32  -2.23  -2.06         -226.609503             -0.0004
iter:  17  01:34:53  -2.42  -2.15         -226.297705             -0.0001
iter:  18  01:35:15  -2.70  -2.49         -226.254980             -0.0001
iter:  19  01:35:36  -3.46  -2.64         -226.236946             -0.0000
iter:  20  01:35:57  -3.57  -2.84         -226.232624             -0.0000
iter:  21  01:36:18  -4.03  -3.13         -226.229400             -0.0000
iter:  22  01:36:40  -5.09  -3.14         -226.229222             -0.0000
iter:  23  01:37:01  -4.46  -3.19         -226.228146             -0.0000
iter:  24  01:37:22  -5.12  -3.47         -226.228275             -0.0000
iter:  25  01:37:43  -5.47  -3.57         -226.227967             -0.0000
iter:  26  01:38:05  -5.56  -3.72         -226.227888             -0.0000
iter:  27  01:38:26  -5.18  -3.90         -226.227692             -0.0000
iter:  28  01:38:47  -5.97  -4.06         -226.227692             -0.0000
iter:  29  01:39:08  -6.89  -4.14         -226.227688             -0.0000
iter:  30  01:39:29  -6.00  -4.19         -226.227669             +0.0000
iter:  31  01:39:51  -6.80  -4.53         -226.227663             -0.0000
iter:  32  01:40:17  -7.41  -4.74         -226.227660             -0.0000
iter:  33  01:40:44  -8.47  -4.77    -3.01-226.227660             -0.0000
iter:  34  01:41:11  -7.71  -4.81    -2.33-226.227659             -0.0000
iter:  35  01:41:38  -7.96  -5.09    -2.84-226.227659             -0.0000
iter:  36  01:42:04  -8.95  -5.19    -3.49-226.227659             -0.0000
iter:  37  01:42:31  -8.14  -5.22    -2.85-226.227659             -0.0000
iter:  38  01:42:58  -8.90  -5.47    -3.15-226.227659             -0.0000
iter:  39  01:43:24  -9.09  -5.58    -3.47-226.227659             -0.0000
iter:  40  01:43:51  -9.23  -5.63    -3.39-226.227659             -0.0000
iter:  41  01:44:18 -10.06  -5.98    -3.79-226.227659             -0.0000
iter:  42  01:44:44 -10.35  -6.08    -3.93-226.227659             -0.0000
iter:  43  01:45:11 -10.51  -6.15    -3.81-226.227659             +0.0000
iter:  44  01:45:38 -11.12  -6.35    -4.40-226.227659             +0.0000
iter:  45  01:46:05 -11.18  -6.41    -4.29-226.227659             +0.0000
iter:  46  01:46:31 -11.05  -6.51    -4.32-226.227659             +0.0000
iter:  47  01:46:58 -11.85  -6.57    -4.81-226.227659             +0.0000
iter:  48  01:47:25 -11.76  -6.58    -4.60-226.227659             +0.0000
iter:  49  01:47:51 -12.00  -6.62    -4.86-226.227659             +0.0000
iter:  50  01:48:18 -11.61  -6.65    -4.46-226.227659             +0.0000
iter:  51  01:48:45 -12.65  -6.93    -5.16-226.227659             +0.0000
iter:  52  01:49:12 -11.87  -6.97    -4.98-226.227659             +0.0000
iter:  53  01:49:38 -12.61  -7.09    -5.11-226.227659             +0.0000
iter:  54  01:50:05 -12.70  -7.14    -5.19-226.227659             +0.0000
iter:  55  01:50:32 -12.93  -7.29    -5.30-226.227659             +0.0000
iter:  56  01:50:58 -13.16  -7.33    -5.28-226.227659             +0.0000
iter:  57  01:51:25 -13.31  -7.41    -5.38-226.227659             +0.0000
iter:  58  01:51:52 -14.55  -7.48    -6.21-226.227659             +0.0000

Converged after 58 iterations.

Dipole moment: (10.671441, 1.387270, -6.269776) |e|*Ang

Total magnetic moment: (0.000000, 0.000000, 0.000000)
Local magnetic moments:
   0 O  ( 0.000000,  0.000000, -0.000533)
   1 O  ( 0.000000,  0.000000,  0.000532)
   2 O  ( 0.000000,  0.000000,  0.000030)
   3 O  ( 0.000000,  0.000000, -0.000940)
   4 O  ( 0.000000,  0.000000,  0.001032)
   5 O  ( 0.000000,  0.000000, -0.000151)
   6 O  ( 0.000000,  0.000000, -0.000524)
   7 O  ( 0.000000,  0.000000,  0.000554)
   8 O  ( 0.000000,  0.000000,  0.028693)
   9 O  ( 0.000000,  0.000000, -0.028701)
  10 O  ( 0.000000,  0.000000, -0.028693)
  11 O  ( 0.000000,  0.000000,  0.028703)
  12 Mn ( 0.000000,  0.000000,  4.448162)
  13 Mn ( 0.000000,  0.000000, -4.448240)
  14 Mn ( 0.000000,  0.000000, -4.448153)
  15 Mn ( 0.000000,  0.000000,  4.448193)
  16 P  ( 0.000000,  0.000000,  0.001557)
  17 P  ( 0.000000,  0.000000, -0.001543)
  18 P  ( 0.000000,  0.000000, -0.001555)
  19 P  ( 0.000000,  0.000000,  0.001545)
  20 O  ( 0.000000,  0.000000,  0.025315)
  21 O  ( 0.000000,  0.000000, -0.025306)
  22 O  ( 0.000000,  0.000000, -0.025314)
  23 O  ( 0.000000,  0.000000,  0.025308)
  24 Li ( 0.000000,  0.000000, -0.000005)
  25 Li ( 0.000000,  0.000000,  0.000002)
  26 Li ( 0.000000,  0.000000,  0.000006)
  27 Li ( 0.000000,  0.000000, -0.000001)

Energy contributions relative to reference atoms: (reference = -196157.275402)

Kinetic:       +217.355250
Potential:     -195.239720
External:        +0.000000
XC:            -250.384310
Entropy (-ST):   -0.000000
Local:           +2.041121
Free energy:   -226.227659
Extrapolated:  -226.227659

Spin contamination: 9.560405 electrons
Showing only first 2 kpts
                      Up                     Down
 Kpt  Band  Eigenvalues  Occupancy  Eigenvalues  Occupancy
  0    88      5.11042    1.00000      5.10998    1.00000
  0    89      5.13428    1.00000      5.13433    1.00000
  0    90      7.28859    0.00000      7.28865    0.00000
  0    91      7.30632    0.00000      7.30640    0.00000

  1    88      5.13586    1.00000      5.13568    1.00000
  1    89      5.16503    1.00000      5.16479    1.00000
  1    90      7.23137    0.00000      7.23148    0.00000
  1    91      7.24362    0.00000      7.24368    0.00000

Fermi level: 6.68861

Gap: 1.972 eV
Transition (v -> c):
  (s=0, k=49, n=89, [-0.08, -0.42, -0.12]) -> (s=0, k=81, n=90, [0.08, -0.08, -0.12])
Writing to born-0.01-15y-.gpw (mode='all')