User:   madkru@g043.nifl.fysik.dtu.dk
Date:   Wed Mar 31 12:54:13 2021
Arch:   x86_64
Pid:    39387
Python: 3.8.6
gpaw:   /home/niflheim/madkru/venv_madkru/gpaw/gpaw (e6f0d78a31)
_gpaw:  /home/niflheim/madkru/venv_madkru/gpaw/build/lib.linux-x86_64-sandybridge-3.8/
        _gpaw.cpython-38-x86_64-linux-gnu.so (e6f0d78a31)
ase:    /home/niflheim/madkru/venv_madkru/ase/ase (version 3.22.0b1-4d5a73cb29)
numpy:  /home/modules/software/SciPy-bundle/2020.11-foss-2020b/lib/python3.8/site-packages/numpy (version 1.19.4)
scipy:  /home/modules/software/SciPy-bundle/2020.11-foss-2020b/lib/python3.8/site-packages/scipy (version 1.5.4)
units:  Angstrom and eV
cores: 64
OpenMP: False
OMP_NUM_THREADS: 1

Input parameters:
  convergence: {bands: occupied,
                density: 0.0001,
                eigenstates: 4e-08,
                energy: 0.0005,
                forces: 1e-06}
  kpts: [6 6 4]
  maxiter: 1000
  mode: {ecut: 600.0,
         gammacentered: False,
         name: pw}
  occupations: {fixmagmom: False,
                name: fermi-dirac,
                width: 0.001}
  symmetry: {point_group: False,
             time_reversal: False}

System changes: positions, numbers, cell, pbc, initial_charges, initial_magmoms

Initialize ...

O-setup:
  name: Oxygen
  id: 9b9d51c344dea68c822856295a461509
  Z: 8.0
  valence: 6
  core: 2
  charge: 0.0
  file: /home/modules/software/GPAW-setups/0.9.20000/O.LDA.gz
  compensation charges: gauss, rc=0.21, lmax=2
  cutoffs: 1.17(filt), 0.83(core),
  valence states:
                energy  radius
    2s(2.00)   -23.752   0.688
    2p(4.00)    -9.195   0.598
    *s           3.459   0.688
    *p          18.016   0.598
    *d           0.000   0.619

  Using partial waves for O as LCAO basis

Mn-setup:
  name: Manganese
  id: 0d715a8018be061a6e9ea6f2d364ac92
  Z: 25.0
  valence: 15
  core: 10
  charge: 0.0
  file: /home/modules/software/GPAW-setups/0.9.20000/Mn.LDA.gz
  compensation charges: gauss, rc=0.38, lmax=2
  cutoffs: 2.14(filt), 0.86(core),
  valence states:
                energy  radius
    3s(2.00)   -85.387   1.275
    4s(2.00)    -5.282   1.275
    3p(6.00)   -54.493   1.281
    4p(0.00)    -1.471   1.281
    3d(5.00)    -7.009   1.138
    *d          20.203   1.138

[...]

P-setup:
  name: Phosphorus
  id: a5561c299094968922a179ab894d2e2d
  Z: 15.0
  valence: 5
  core: 10
  charge: 0.0
  file: /home/modules/software/GPAW-setups/0.9.20000/P.LDA.gz
  compensation charges: gauss, rc=0.30, lmax=2
  cutoffs: 1.69(filt), 1.81(core),
  valence states:
                energy  radius
    3s(2.00)   -14.015   0.953
    3p(3.00)    -5.596   0.953
    *s          13.197   0.953
    *p          21.615   0.953
    *d           0.000   0.953

[...]

Li-setup:
  name: Lithium
  id: b73562207f97a71b6967473b66fe8b65
  Z: 3.0
  valence: 1
  core: 2
  charge: 0.0
  file: /home/modules/software/GPAW-setups/0.9.20000/Li.LDA.gz
  compensation charges: gauss, rc=0.33, lmax=2
  cutoffs: 1.91(filt), 2.55(core),
  valence states:
                energy  radius
    2s(1.00)    -2.874   1.058
    2p(0.00)    -1.126   1.058
    *s          24.338   1.058

  Using partial waves for Li as LCAO basis

Reference energy: -196157.275402

Spin-polarized calculation.
Magnetic moment: 0.000000

Convergence criteria:
  Maximum total energy change: 0.0005 eV / electron
  Maximum integral of absolute density change: 0.0001 electrons
  Maximum integral of absolute eigenstate change: 4e-08 eV^2
  Maximum change in atomic force: 1e-06 eV / Ang
  Maximum number of iterations: 1000

Symmetries present (total): 1

  ( 1  0  0)
  ( 0  1  0)
  ( 0  0  1)

144 k-points: 6 x 6 x 4 Monkhorst-Pack grid
144 k-points in the irreducible part of the Brillouin zone
       k-points in crystal coordinates                weights
   0:    -0.41666667   -0.41666667   -0.37500000          1/144
   1:    -0.41666667   -0.41666667   -0.12500000          1/144
   2:    -0.41666667   -0.41666667    0.12500000          1/144
   3:    -0.41666667   -0.41666667    0.37500000          1/144
   4:    -0.41666667   -0.25000000   -0.37500000          1/144
   5:    -0.41666667   -0.25000000   -0.12500000          1/144
   6:    -0.41666667   -0.25000000    0.12500000          1/144
   7:    -0.41666667   -0.25000000    0.37500000          1/144
   8:    -0.41666667   -0.08333333   -0.37500000          1/144
   9:    -0.41666667   -0.08333333   -0.12500000          1/144
          ...
 143:     0.41666667    0.41666667    0.37500000          1/144

Wave functions: Plane wave expansion
  Cutoff energy: 600.000 eV
  Number of coefficients (min, max): 10068, 10125
  Pulay-stress correction: 0.000000 eV/Ang^3 (de/decut=0.000000)
  Using FFTW library
  ScaLapack parameters: grid=1x1, blocksize=None
  Wavefunction extrapolation:
    Improved wavefunction reuse through dual PAW basis

  Fermi-Dirac: width=0.0010 eV

Eigensolver
   Davidson(niter=2)

Densities:
  Coarse grid: 60*35*27 grid
  Fine grid: 120*70*54 grid
  Total Charge: 0.000000

Density mixing:
  Method: difference
  Backend: pulay
  Linear mixing parameter: 0.05
  Mixing with 5 old densities
  Damping of long wave oscillations: 50

Hamiltonian:
  XC and Coulomb potentials evaluated on a 120*70*54 grid
  Using the LDA Exchange-Correlation functional

Total number of cores used: 64
Parallelization over k-points: 16
Domain decomposition: 2 x 2 x 1

Number of atoms: 28
Number of atomic orbitals: 148
Number of bands in calculation: 112
Number of valence electrons: 180
Bands to converge: occupied

... initialized

Initializing position-dependent things.

Density initialized from atomic densities
Creating initial wave functions:
  112 bands from LCAO basis set

    /|         OP              |
   / |O            O        O  |
  /  |       O            O  P |
 *   |O    Mn      O           |
 |   |          OLi          O |
 |   .P-O--------------Mn------.
 |  /          Li    O  Mn  O /
 | /Li O           PO        /
 |/       Mn                /
 *Li-----------------------*

Positions:
   0 O     -1.360678   -2.541161   -1.202221    ( 0.0000,  0.0000,  0.0000)
   1 O     -3.121941    2.976855    1.167242    ( 0.0000,  0.0000,  0.0000)
   2 O      2.107533    0.508090    1.540712    ( 0.0000,  0.0000,  0.0000)
   3 O      3.869373   -0.072395   -0.828750    ( 0.0000,  0.0000,  0.0000)
   4 O      2.107821    2.976875    1.540792    ( 0.0000,  0.0000,  0.0000)
   5 O      3.869084   -2.541141   -0.828671    ( 0.0000,  0.0000,  0.0000)
   6 O     -1.360390   -0.072375   -1.202141    ( 0.0000,  0.0000,  0.0000)
   7 O     -3.122230    0.508109    1.167321    ( 0.0000,  0.0000,  0.0000)
   8 O     -4.413461   -1.306992   -0.794251    ( 0.0000,  0.0000,  0.0000)
   9 O     -0.069585    1.742707    1.575662    ( 0.0000,  0.0000,  0.0000)
  10 O      5.160604    1.742707    1.132822    ( 0.0000,  0.0000,  0.0000)
  11 O      0.816728   -1.306992   -1.237091    ( 0.0000,  0.0000,  0.0000)
  12 Mn    -2.570809   -1.307302    0.247161    ( 0.0000,  0.0000,  1.0000)
  13 Mn    -1.912021    1.743016   -2.122906    ( 0.0000,  0.0000, -1.0000)
  14 Mn     3.317952    1.743017    0.091411    ( 0.0000,  0.0000, -1.0000)
  15 Mn     2.659164   -1.307302    2.461478    ( 0.0000,  0.0000,  1.0000)
  16 P     -0.620664   -1.306816   -1.828465    ( 0.0000,  0.0000,  0.0000)
  17 P     -3.862097    1.742530    0.541238    ( 0.0000,  0.0000,  0.0000)
  18 P      1.367807    1.752530    2.167036    ( 0.0000,  0.0000,  0.0000)
  19 P      4.609240   -1.306816   -0.202666    ( 0.0000,  0.0000,  0.0000)
  20 O     -0.646437   -1.306845    1.374751    ( 0.0000,  0.0000,  0.0000)
  21 O     -3.836504    1.742559   -0.995565    ( 0.0000,  0.0000,  0.0000)
  22 O      1.393580    1.742559   -1.036179    ( 0.0000,  0.0000,  0.0000)
  23 O      4.583647   -1.306845    1.334136    ( 0.0000,  0.0000,  0.0000)
  24 Li    -4.856429   -2.832143   -2.200714    ( 0.0000,  0.0000,  0.0000)
  25 Li     0.373571   -2.832143    0.169286    ( 0.0000,  0.0000,  0.0000)
  26 Li    -4.856429    0.217857   -2.200714    ( 0.0000,  0.0000,  0.0000)
  27 Li     0.373571    0.217857    0.169286    ( 0.0000,  0.0000,  0.0000)

Unit cell:
           periodic     x           y           z      points  spacing
  1. axis:    yes   10.460000    0.000000    0.000000    60     0.1743
  2. axis:    yes    0.000000    6.100000    0.000000    35     0.1743
  3. axis:    yes    0.000000    0.000000    4.740000    27     0.1756

  Lengths:  10.460000   6.100000   4.740000
  Angles:   90.000000  90.000000  90.000000

Effective grid spacing dv^(1/3) = 0.1747

                     log10-error:           total        iterations:
           time      wfs    density  force  energy       poisson  magmom
iter:   1  12:55:48                       -231.918366             +0.0000
iter:   2  12:56:09  -0.55  -0.94         -231.728994             +0.0049
iter:   3  12:56:31  -0.72  -0.98         -220.582694             +0.0062
iter:   4  12:56:52  -0.96  -1.20         -218.864184             +0.0020
iter:   5  12:57:13  -1.94  -1.36         -221.233153             +0.0013
iter:   6  12:57:34  -1.98  -1.50         -219.947873             +0.0007
iter:   7  12:57:56  -2.22  -1.68         -222.733153             +0.1394
iter:   8  12:58:17  -2.74  -1.89         -219.768467             +0.1866
iter:   9  12:58:38  -2.25  -1.94         -224.506388             +0.7597
iter:  10  12:58:59  -2.29  -1.88         -226.960626             +0.1741
iter:  11  12:59:21  -2.81  -1.85         -227.367808             -0.0132
iter:  12  12:59:42  -2.65  -1.80         -227.078543             -0.0032
iter:  13  13:00:03  -1.85  -1.88         -227.175418             -0.0023
iter:  14  13:00:24  -2.77  -2.04         -226.852405             -0.0010
iter:  15  13:00:46  -2.00  -2.07         -226.440396             +0.0007
iter:  16  13:01:07  -2.26  -2.14         -226.654819             +0.0001
iter:  17  13:01:28  -2.16  -2.18         -226.326051             +0.0003
iter:  18  13:01:49  -2.92  -2.45         -226.240126             +0.0001
iter:  19  13:02:10  -3.52  -2.83         -226.232629             +0.0000
iter:  20  13:02:32  -4.29  -2.90         -226.231056             +0.0000
iter:  21  13:02:53  -3.82  -3.01         -226.235987             +0.0000
iter:  22  13:03:14  -4.70  -3.11         -226.236048             +0.0000
iter:  23  13:03:36  -3.58  -3.17         -226.226343             +0.0000
iter:  24  13:03:57  -4.52  -3.34         -226.226386             +0.0000
iter:  25  13:04:18  -5.42  -3.52         -226.225954             +0.0000
iter:  26  13:04:39  -4.54  -3.56         -226.226161             +0.0000
iter:  27  13:05:01  -5.46  -3.59         -226.225706             +0.0000
iter:  28  13:05:22  -5.78  -3.67         -226.225574             +0.0000
iter:  29  13:05:43  -6.04  -3.77         -226.225564             +0.0000
iter:  30  13:06:04  -5.87  -3.86         -226.225594             -0.0000
iter:  31  13:06:26  -5.93  -4.09         -226.225515             -0.0000
iter:  32  13:06:47  -6.64  -4.37         -226.225506             -0.0000
iter:  33  13:07:08  -7.25  -4.48         -226.225504             +0.0000
iter:  34  13:07:29  -6.80  -4.53         -226.225500             +0.0000
iter:  35  13:07:56  -7.57  -4.88         -226.225501             +0.0000
iter:  36  13:08:23  -7.85  -4.94    -2.79-226.225500             +0.0000
iter:  37  13:08:49  -8.48  -5.04    -3.22-226.225500             +0.0000
iter:  38  13:09:16  -8.05  -5.18    -2.81-226.225500             +0.0000
iter:  39  13:09:43  -8.32  -5.37    -2.97-226.225500             +0.0000
iter:  40  13:10:09  -9.58  -5.81    -3.93-226.225500             +0.0000
iter:  41  13:10:36  -8.75  -5.84    -3.28-226.225500             +0.0000
iter:  42  13:11:03  -9.85  -6.10    -3.66-226.225500             +0.0000
iter:  43  13:11:30 -10.52  -6.28    -4.21-226.225500             -0.0000
iter:  44  13:11:56 -10.13  -6.37    -3.92-226.225500             -0.0000
iter:  45  13:12:23 -10.51  -6.46    -4.19-226.225500             -0.0000
iter:  46  13:12:50 -11.70  -6.74    -5.02-226.225500             -0.0000
iter:  47  13:13:16 -11.83  -6.78    -4.67-226.225500             -0.0000
iter:  48  13:13:43 -11.83  -6.91    -4.85-226.225500             -0.0000
iter:  49  13:14:10 -12.33  -6.97    -4.73-226.225500             -0.0000
iter:  50  13:14:37 -12.10  -7.11    -4.89-226.225500             -0.0000
iter:  51  13:15:03 -12.67  -7.17    -5.02-226.225500             -0.0000
iter:  52  13:15:30 -12.84  -7.40    -5.56-226.225500             -0.0000
iter:  53  13:15:57 -13.00  -7.57    -5.37-226.225500             -0.0000
iter:  54  13:16:23 -13.30  -7.91    -5.59-226.225500             -0.0000
iter:  55  13:16:50 -13.74  -8.08    -5.84-226.225500             -0.0000
iter:  56  13:17:17 -13.75  -8.12    -5.81-226.225500             -0.0000
iter:  57  13:17:44 -14.48  -8.38    -6.00-226.225500             -0.0000

Converged after 57 iterations.

Dipole moment: (10.671433, 1.427876, -6.269770) |e|*Ang

Total magnetic moment: (0.000000, 0.000000, -0.000000)
Local magnetic moments:
   0 O  ( 0.000000,  0.000000, -0.000532)
   1 O  ( 0.000000,  0.000000,  0.000536)
   2 O  ( 0.000000,  0.000000,  0.000422)
   3 O  ( 0.000000,  0.000000, -0.000572)
   4 O  ( 0.000000,  0.000000,  0.000640)
   5 O  ( 0.000000,  0.000000, -0.000515)
   6 O  ( 0.000000,  0.000000, -0.000525)
   7 O  ( 0.000000,  0.000000,  0.000551)
   8 O  ( 0.000000,  0.000000,  0.028693)
   9 O  ( 0.000000,  0.000000, -0.028702)
  10 O  ( 0.000000,  0.000000, -0.028692)
  11 O  ( 0.000000,  0.000000,  0.028701)
  12 Mn ( 0.000000,  0.000000,  4.448162)
  13 Mn ( 0.000000,  0.000000, -4.448239)
  14 Mn ( 0.000000,  0.000000, -4.448145)
  15 Mn ( 0.000000,  0.000000,  4.448223)
  16 P  ( 0.000000,  0.000000,  0.001558)
  17 P  ( 0.000000,  0.000000, -0.001543)
  18 P  ( 0.000000,  0.000000, -0.001560)
  19 P  ( 0.000000,  0.000000,  0.001543)
  20 O  ( 0.000000,  0.000000,  0.025314)
  21 O  ( 0.000000,  0.000000, -0.025306)
  22 O  ( 0.000000,  0.000000, -0.025316)
  23 O  ( 0.000000,  0.000000,  0.025306)
  24 Li ( 0.000000,  0.000000, -0.000000)
  25 Li ( 0.000000,  0.000000, -0.000004)
  26 Li ( 0.000000,  0.000000,  0.000000)
  27 Li ( 0.000000,  0.000000,  0.000004)

Energy contributions relative to reference atoms: (reference = -196157.275402)

Kinetic:       +217.363921
Potential:     -195.245930
External:        +0.000000
XC:            -250.384618
Entropy (-ST):   -0.000000
Local:           +2.041127
Free energy:   -226.225500
Extrapolated:  -226.225500

Spin contamination: 9.560397 electrons
Showing only first 2 kpts
                      Up                     Down
 Kpt  Band  Eigenvalues  Occupancy  Eigenvalues  Occupancy
  0    88      5.10980    1.00000      5.10998    1.00000
  0    89      5.13440    1.00000      5.13426    1.00000
  0    90      7.28864    0.00000      7.28866    0.00000
  0    91      7.30639    0.00000      7.30633    0.00000

  1    88      5.13559    1.00000      5.13552    1.00000
  1    89      5.16479    1.00000      5.16487    1.00000
  1    90      7.23140    0.00000      7.23144    0.00000
  1    91      7.24370    0.00000      7.24364    0.00000

Fermi level: 6.28811

Gap: 1.972 eV
Transition (v -> c):
  (s=1, k=93, n=89, [0.08, 0.42, -0.12]) -> (s=0, k=86, n=90, [0.08, 0.08, 0.12])
Writing to born-0.01-18y+.gpw (mode='all')