User:   madkru@g043.nifl.fysik.dtu.dk
Date:   Thu Apr  1 00:12:21 2021
Arch:   x86_64
Pid:    39387
Python: 3.8.6
gpaw:   /home/niflheim/madkru/venv_madkru/gpaw/gpaw (e6f0d78a31)
_gpaw:  /home/niflheim/madkru/venv_madkru/gpaw/build/lib.linux-x86_64-sandybridge-3.8/
        _gpaw.cpython-38-x86_64-linux-gnu.so (e6f0d78a31)
ase:    /home/niflheim/madkru/venv_madkru/ase/ase (version 3.22.0b1-4d5a73cb29)
numpy:  /home/modules/software/SciPy-bundle/2020.11-foss-2020b/lib/python3.8/site-packages/numpy (version 1.19.4)
scipy:  /home/modules/software/SciPy-bundle/2020.11-foss-2020b/lib/python3.8/site-packages/scipy (version 1.5.4)
units:  Angstrom and eV
cores: 64
OpenMP: False
OMP_NUM_THREADS: 1

Input parameters:
  convergence: {bands: occupied,
                density: 0.0001,
                eigenstates: 4e-08,
                energy: 0.0005,
                forces: 1e-06}
  kpts: [6 6 4]
  maxiter: 1000
  mode: {ecut: 600.0,
         gammacentered: False,
         name: pw}
  occupations: {fixmagmom: False,
                name: fermi-dirac,
                width: 0.001}
  symmetry: {point_group: False,
             time_reversal: False}

System changes: positions, numbers, cell, pbc, initial_charges, initial_magmoms

Initialize ...

O-setup:
  name: Oxygen
  id: 9b9d51c344dea68c822856295a461509
  Z: 8.0
  valence: 6
  core: 2
  charge: 0.0
  file: /home/modules/software/GPAW-setups/0.9.20000/O.LDA.gz
  compensation charges: gauss, rc=0.21, lmax=2
  cutoffs: 1.17(filt), 0.83(core),
  valence states:
                energy  radius
    2s(2.00)   -23.752   0.688
    2p(4.00)    -9.195   0.598
    *s           3.459   0.688
    *p          18.016   0.598
    *d           0.000   0.619

  Using partial waves for O as LCAO basis

Mn-setup:
  name: Manganese
  id: 0d715a8018be061a6e9ea6f2d364ac92
  Z: 25.0
  valence: 15
  core: 10
  charge: 0.0
  file: /home/modules/software/GPAW-setups/0.9.20000/Mn.LDA.gz
  compensation charges: gauss, rc=0.38, lmax=2
  cutoffs: 2.14(filt), 0.86(core),
  valence states:
                energy  radius
    3s(2.00)   -85.387   1.275
    4s(2.00)    -5.282   1.275
    3p(6.00)   -54.493   1.281
    4p(0.00)    -1.471   1.281
    3d(5.00)    -7.009   1.138
    *d          20.203   1.138

[...]

P-setup:
  name: Phosphorus
  id: a5561c299094968922a179ab894d2e2d
  Z: 15.0
  valence: 5
  core: 10
  charge: 0.0
  file: /home/modules/software/GPAW-setups/0.9.20000/P.LDA.gz
  compensation charges: gauss, rc=0.30, lmax=2
  cutoffs: 1.69(filt), 1.81(core),
  valence states:
                energy  radius
    3s(2.00)   -14.015   0.953
    3p(3.00)    -5.596   0.953
    *s          13.197   0.953
    *p          21.615   0.953
    *d           0.000   0.953

[...]

Li-setup:
  name: Lithium
  id: b73562207f97a71b6967473b66fe8b65
  Z: 3.0
  valence: 1
  core: 2
  charge: 0.0
  file: /home/modules/software/GPAW-setups/0.9.20000/Li.LDA.gz
  compensation charges: gauss, rc=0.33, lmax=2
  cutoffs: 1.91(filt), 2.55(core),
  valence states:
                energy  radius
    2s(1.00)    -2.874   1.058
    2p(0.00)    -1.126   1.058
    *s          24.338   1.058

  Using partial waves for Li as LCAO basis

Reference energy: -196157.275402

Spin-polarized calculation.
Magnetic moment: 0.000000

Convergence criteria:
  Maximum total energy change: 0.0005 eV / electron
  Maximum integral of absolute density change: 0.0001 electrons
  Maximum integral of absolute eigenstate change: 4e-08 eV^2
  Maximum change in atomic force: 1e-06 eV / Ang
  Maximum number of iterations: 1000

Symmetries present (total): 1

  ( 1  0  0)
  ( 0  1  0)
  ( 0  0  1)

144 k-points: 6 x 6 x 4 Monkhorst-Pack grid
144 k-points in the irreducible part of the Brillouin zone
       k-points in crystal coordinates                weights
   0:    -0.41666667   -0.41666667   -0.37500000          1/144
   1:    -0.41666667   -0.41666667   -0.12500000          1/144
   2:    -0.41666667   -0.41666667    0.12500000          1/144
   3:    -0.41666667   -0.41666667    0.37500000          1/144
   4:    -0.41666667   -0.25000000   -0.37500000          1/144
   5:    -0.41666667   -0.25000000   -0.12500000          1/144
   6:    -0.41666667   -0.25000000    0.12500000          1/144
   7:    -0.41666667   -0.25000000    0.37500000          1/144
   8:    -0.41666667   -0.08333333   -0.37500000          1/144
   9:    -0.41666667   -0.08333333   -0.12500000          1/144
          ...
 143:     0.41666667    0.41666667    0.37500000          1/144

Wave functions: Plane wave expansion
  Cutoff energy: 600.000 eV
  Number of coefficients (min, max): 10068, 10125
  Pulay-stress correction: 0.000000 eV/Ang^3 (de/decut=0.000000)
  Using FFTW library
  ScaLapack parameters: grid=1x1, blocksize=None
  Wavefunction extrapolation:
    Improved wavefunction reuse through dual PAW basis

  Fermi-Dirac: width=0.0010 eV

Eigensolver
   Davidson(niter=2)

Densities:
  Coarse grid: 60*35*27 grid
  Fine grid: 120*70*54 grid
  Total Charge: 0.000000

Density mixing:
  Method: difference
  Backend: pulay
  Linear mixing parameter: 0.05
  Mixing with 5 old densities
  Damping of long wave oscillations: 50

Hamiltonian:
  XC and Coulomb potentials evaluated on a 120*70*54 grid
  Using the LDA Exchange-Correlation functional

Total number of cores used: 64
Parallelization over k-points: 16
Domain decomposition: 2 x 2 x 1

Number of atoms: 28
Number of atomic orbitals: 148
Number of bands in calculation: 112
Number of valence electrons: 180
Bands to converge: occupied

... initialized

Initializing position-dependent things.

Density initialized from atomic densities
Creating initial wave functions:
  112 bands from LCAO basis set

    /|         OP              |
   / |O            O        O  |
  /  |       O            O  P |
 *   |O    Mn      O           |
 |   |          OLi          O |
 |   .P-O--------------Mn------.
 |  /          Li    O  Mn  O /
 | /Li O           PO        /
 |/       Mn                /
 *Li-----------------------*

Positions:
   0 O     -1.360678   -2.541161   -1.202221    ( 0.0000,  0.0000,  0.0000)
   1 O     -3.121941    2.976855    1.167242    ( 0.0000,  0.0000,  0.0000)
   2 O      2.107533    0.508090    1.540712    ( 0.0000,  0.0000,  0.0000)
   3 O      3.869373   -0.072395   -0.828750    ( 0.0000,  0.0000,  0.0000)
   4 O      2.107821    2.976875    1.540792    ( 0.0000,  0.0000,  0.0000)
   5 O      3.869084   -2.541141   -0.828671    ( 0.0000,  0.0000,  0.0000)
   6 O     -1.360390   -0.072375   -1.202141    ( 0.0000,  0.0000,  0.0000)
   7 O     -3.122230    0.508109    1.167321    ( 0.0000,  0.0000,  0.0000)
   8 O     -4.413461   -1.306992   -0.794251    ( 0.0000,  0.0000,  0.0000)
   9 O     -0.069585    1.742707    1.575662    ( 0.0000,  0.0000,  0.0000)
  10 O      5.160604    1.742707    1.132822    ( 0.0000,  0.0000,  0.0000)
  11 O      0.816728   -1.306992   -1.237091    ( 0.0000,  0.0000,  0.0000)
  12 Mn    -2.570809   -1.307302    0.247161    ( 0.0000,  0.0000,  1.0000)
  13 Mn    -1.912021    1.743016   -2.122906    ( 0.0000,  0.0000, -1.0000)
  14 Mn     3.317952    1.743017    0.091411    ( 0.0000,  0.0000, -1.0000)
  15 Mn     2.659164   -1.307302    2.461478    ( 0.0000,  0.0000,  1.0000)
  16 P     -0.620664   -1.306816   -1.828465    ( 0.0000,  0.0000,  0.0000)
  17 P     -3.862097    1.742530    0.541238    ( 0.0000,  0.0000,  0.0000)
  18 P      1.367807    1.742530    2.167036    ( 0.0000,  0.0000,  0.0000)
  19 P      4.609240   -1.306816   -0.202666    ( 0.0000,  0.0000,  0.0000)
  20 O     -0.646437   -1.306845    1.374751    ( 0.0000,  0.0000,  0.0000)
  21 O     -3.836504    1.742559   -1.005565    ( 0.0000,  0.0000,  0.0000)
  22 O      1.393580    1.742559   -1.036179    ( 0.0000,  0.0000,  0.0000)
  23 O      4.583647   -1.306845    1.334136    ( 0.0000,  0.0000,  0.0000)
  24 Li    -4.856429   -2.832143   -2.200714    ( 0.0000,  0.0000,  0.0000)
  25 Li     0.373571   -2.832143    0.169286    ( 0.0000,  0.0000,  0.0000)
  26 Li    -4.856429    0.217857   -2.200714    ( 0.0000,  0.0000,  0.0000)
  27 Li     0.373571    0.217857    0.169286    ( 0.0000,  0.0000,  0.0000)

Unit cell:
           periodic     x           y           z      points  spacing
  1. axis:    yes   10.460000    0.000000    0.000000    60     0.1743
  2. axis:    yes    0.000000    6.100000    0.000000    35     0.1743
  3. axis:    yes    0.000000    0.000000    4.740000    27     0.1756

  Lengths:  10.460000   6.100000   4.740000
  Angles:   90.000000  90.000000  90.000000

Effective grid spacing dv^(1/3) = 0.1747

                     log10-error:           total        iterations:
           time      wfs    density  force  energy       poisson  magmom
iter:   1  00:13:56                       -231.924366             +0.0000
iter:   2  00:14:17  -0.55  -0.94         -231.722016             +0.0048
iter:   3  00:14:38  -0.72  -0.98         -220.591609             +0.0061
iter:   4  00:15:00  -0.96  -1.20         -218.881173             +0.0020
iter:   5  00:15:21  -1.94  -1.36         -220.812586             +0.0013
iter:   6  00:15:42  -1.86  -1.54         -219.483046             +0.0008
iter:   7  00:16:04  -2.21  -1.63         -220.536033             -0.4609
iter:   8  00:16:25  -2.51  -1.93         -219.119023             -0.4605
iter:   9  00:16:46  -2.32  -1.91         -221.594028             +0.3516
iter:  10  00:17:07  -2.93  -1.95         -222.727657             +0.0949
iter:  11  00:17:28  -1.81  -1.95         -226.746983             -0.3829
iter:  12  00:17:50  -3.17  -1.85         -227.122738             -0.0879
iter:  13  00:18:11  -3.36  -1.88         -227.230265             -0.0100
iter:  14  00:18:32  -2.36  -1.90         -227.099143             +0.0037
iter:  15  00:18:53  -2.09  -1.96         -227.844505             -0.0020
iter:  16  00:19:15  -3.05  -1.87         -227.110963             +0.1065
iter:  17  00:19:36  -1.68  -2.05         -226.567344             +0.2953
iter:  18  00:19:57  -2.25  -2.12         -226.544054             +0.0603
iter:  19  00:20:18  -3.35  -2.19         -226.450485             -0.0115
iter:  20  00:20:40  -3.12  -2.25         -226.494751             -0.0084
iter:  21  00:21:01  -3.45  -2.29         -226.397623             -0.0030
iter:  22  00:21:22  -2.72  -2.58         -226.251656             -0.0006
iter:  23  00:21:43  -3.71  -2.87         -226.247801             -0.0006
iter:  24  00:22:04  -3.36  -2.88         -226.263436             -0.0002
iter:  25  00:22:26  -3.41  -2.97         -226.231041             -0.0001
iter:  26  00:22:47  -4.32  -3.09         -226.230080             -0.0001
iter:  27  00:23:08  -4.90  -3.10         -226.231570             +0.0000
iter:  28  00:23:29  -3.88  -3.18         -226.226454             -0.0000
iter:  29  00:23:50  -4.81  -3.35         -226.226185             +0.0000
iter:  30  00:24:12  -5.61  -3.54         -226.226297             +0.0000
iter:  31  00:24:33  -5.16  -3.58         -226.226071             +0.0000
iter:  32  00:24:54  -6.39  -3.71         -226.226093             +0.0000
iter:  33  00:25:15  -5.32  -3.75         -226.226045             +0.0000
iter:  34  00:25:37  -5.85  -3.97         -226.226054             +0.0000
iter:  35  00:25:58  -6.49  -4.24         -226.226007             +0.0000
iter:  36  00:26:19  -7.00  -4.37         -226.225993             -0.0000
iter:  37  00:26:40  -6.65  -4.43         -226.225975             -0.0000
iter:  38  00:27:02  -7.28  -4.53         -226.225974             -0.0000
iter:  39  00:27:28  -7.56  -4.63         -226.225977             -0.0000
iter:  40  00:27:55  -7.48  -4.69    -2.74-226.225973             -0.0000
iter:  41  00:28:22  -7.43  -4.91    -2.68-226.225972             -0.0000
iter:  42  00:28:48  -8.76  -5.05    -3.32-226.225972             -0.0000
iter:  43  00:29:15  -8.78  -5.10    -3.22-226.225972             -0.0000
iter:  44  00:29:42  -8.54  -5.17    -3.04-226.225972             +0.0000
iter:  45  00:30:09  -9.07  -5.22    -3.18-226.225972             +0.0000
iter:  46  00:30:35  -9.24  -5.28    -3.61-226.225972             +0.0000
iter:  47  00:31:02  -9.58  -5.31    -3.50-226.225972             +0.0000
iter:  48  00:31:29  -8.85  -5.37    -3.39-226.225972             +0.0000
iter:  49  00:31:56  -9.52  -5.57    -3.58-226.225972             -0.0000
iter:  50  00:32:22  -8.50  -5.66    -3.14-226.225972             -0.0000
iter:  51  00:32:49  -9.58  -5.86    -3.64-226.225972             -0.0000
iter:  52  00:33:16 -10.44  -6.05    -4.44-226.225972             -0.0000
iter:  53  00:33:42 -10.16  -6.08    -3.93-226.225972             -0.0000
iter:  54  00:34:09 -10.27  -6.24    -4.06-226.225972             -0.0000
iter:  55  00:34:36 -11.32  -6.28    -4.45-226.225972             -0.0000
iter:  56  00:35:03 -10.57  -6.36    -4.00-226.225972             -0.0000
iter:  57  00:35:30 -10.31  -6.34    -4.00-226.225972             -0.0000
iter:  58  00:35:56 -11.43  -6.57    -4.36-226.225972             -0.0000
iter:  59  00:36:23 -12.32  -6.79    -5.16-226.225972             -0.0000
iter:  60  00:36:50 -11.31  -6.84    -4.56-226.225972             -0.0000
iter:  61  00:37:16 -11.53  -6.92    -4.59-226.225972             -0.0000
iter:  62  00:37:43 -12.97  -7.20    -5.24-226.225972             -0.0000
iter:  63  00:38:10 -11.96  -7.25    -4.72-226.225972             -0.0000
iter:  64  00:38:37 -12.29  -7.30    -4.94-226.225972             -0.0000
iter:  65  00:39:03 -13.72  -7.69    -5.65-226.225972             -0.0000
iter:  66  00:39:30 -14.33  -7.85    -6.27-226.225972             -0.0000

Converged after 66 iterations.

Dipole moment: (10.670907, 1.412981, -6.280838) |e|*Ang

Total magnetic moment: (0.000000, 0.000000, -0.000000)
Local magnetic moments:
   0 O  ( 0.000000,  0.000000, -0.000535)
   1 O  ( 0.000000,  0.000000,  0.000607)
   2 O  ( 0.000000,  0.000000,  0.000536)
   3 O  ( 0.000000,  0.000000, -0.000564)
   4 O  ( 0.000000,  0.000000,  0.000516)
   5 O  ( 0.000000,  0.000000, -0.000544)
   6 O  ( 0.000000,  0.000000, -0.000555)
   7 O  ( 0.000000,  0.000000,  0.000626)
   8 O  ( 0.000000,  0.000000,  0.028687)
   9 O  ( 0.000000,  0.000000, -0.028566)
  10 O  ( 0.000000,  0.000000, -0.028707)
  11 O  ( 0.000000,  0.000000,  0.028708)
  12 Mn ( 0.000000,  0.000000,  4.448212)
  13 Mn ( 0.000000,  0.000000, -4.447864)
  14 Mn ( 0.000000,  0.000000, -4.448199)
  15 Mn ( 0.000000,  0.000000,  4.448226)
  16 P  ( 0.000000,  0.000000,  0.001532)
  17 P  ( 0.000000,  0.000000, -0.001627)
  18 P  ( 0.000000,  0.000000, -0.001556)
  19 P  ( 0.000000,  0.000000,  0.001544)
  20 O  ( 0.000000,  0.000000,  0.025322)
  21 O  ( 0.000000,  0.000000, -0.025529)
  22 O  ( 0.000000,  0.000000, -0.025328)
  23 O  ( 0.000000,  0.000000,  0.025303)
  24 Li ( 0.000000,  0.000000, -0.000012)
  25 Li ( 0.000000,  0.000000, -0.000000)
  26 Li ( 0.000000,  0.000000, -0.000012)
  27 Li ( 0.000000,  0.000000, -0.000000)

Energy contributions relative to reference atoms: (reference = -196157.275402)

Kinetic:       +216.647173
Potential:     -194.682709
External:        +0.000000
XC:            -250.233332
Entropy (-ST):   -0.000000
Local:           +2.042896
Free energy:   -226.225972
Extrapolated:  -226.225972

Spin contamination: 9.560576 electrons
Showing only first 2 kpts
                      Up                     Down
 Kpt  Band  Eigenvalues  Occupancy  Eigenvalues  Occupancy
  0    88      5.10961    1.00000      5.11435    1.00000
  0    89      5.13400    1.00000      5.14251    1.00000
  0    90      7.28961    0.00000      7.28804    0.00000
  0    91      7.30823    0.00000      7.30609    0.00000

  1    88      5.13531    1.00000      5.14088    1.00000
  1    89      5.16444    1.00000      5.17249    1.00000
  1    90      7.23218    0.00000      7.23084    0.00000
  1    91      7.24573    0.00000      7.24345    0.00000

Fermi level: 6.19747

Gap: 1.965 eV
Transition (v -> c):
  (s=1, k=70, n=89, [-0.08, 0.42, 0.12]) -> (s=1, k=86, n=90, [0.08, 0.08, 0.12])