User:   madkru@i009.nifl.fysik.dtu.dk
Date:   Thu Apr  1 18:52:49 2021
Arch:   x86_64
Pid:    31381
Python: 3.8.6
gpaw:   /home/niflheim/madkru/venv_madkru/gpaw/gpaw (e6f0d78a31)
_gpaw:  /home/niflheim/madkru/venv_madkru/gpaw/build/lib.linux-x86_64-ivybridge-3.8/
        _gpaw.cpython-38-x86_64-linux-gnu.so (e6f0d78a31)
ase:    /home/niflheim/madkru/venv_madkru/ase/ase (version 3.22.0b1-4d5a73cb29)
numpy:  /home/modules/software/SciPy-bundle/2020.11-foss-2020b/lib/python3.8/site-packages/numpy (version 1.19.4)
scipy:  /home/modules/software/SciPy-bundle/2020.11-foss-2020b/lib/python3.8/site-packages/scipy (version 1.5.4)
units:  Angstrom and eV
cores: 64
OpenMP: False
OMP_NUM_THREADS: 1

Input parameters:
  convergence: {bands: occupied,
                density: 0.0001,
                eigenstates: 4e-08,
                energy: 0.0005,
                forces: 1e-06}
  kpts: [6 6 4]
  maxiter: 1000
  mode: {ecut: 600.0,
         gammacentered: False,
         name: pw}
  occupations: {fixmagmom: False,
                name: fermi-dirac,
                width: 0.001}
  symmetry: {point_group: False,
             time_reversal: False}

System changes: positions, numbers, cell, pbc, initial_charges, initial_magmoms

Initialize ...

O-setup:
  name: Oxygen
  id: 9b9d51c344dea68c822856295a461509
  Z: 8.0
  valence: 6
  core: 2
  charge: 0.0
  file: /home/modules/software/GPAW-setups/0.9.20000/O.LDA.gz
  compensation charges: gauss, rc=0.21, lmax=2
  cutoffs: 1.17(filt), 0.83(core),
  valence states:
                energy  radius
    2s(2.00)   -23.752   0.688
    2p(4.00)    -9.195   0.598
    *s           3.459   0.688
    *p          18.016   0.598
    *d           0.000   0.619

  Using partial waves for O as LCAO basis

Mn-setup:
  name: Manganese
  id: 0d715a8018be061a6e9ea6f2d364ac92
  Z: 25.0
  valence: 15
  core: 10
  charge: 0.0
  file: /home/modules/software/GPAW-setups/0.9.20000/Mn.LDA.gz
  compensation charges: gauss, rc=0.38, lmax=2
  cutoffs: 2.14(filt), 0.86(core),
  valence states:
                energy  radius
    3s(2.00)   -85.387   1.275
    4s(2.00)    -5.282   1.275
    3p(6.00)   -54.493   1.281
    4p(0.00)    -1.471   1.281
    3d(5.00)    -7.009   1.138
    *d          20.203   1.138

[...]

P-setup:
  name: Phosphorus
  id: a5561c299094968922a179ab894d2e2d
  Z: 15.0
  valence: 5
  core: 10
  charge: 0.0
  file: /home/modules/software/GPAW-setups/0.9.20000/P.LDA.gz
  compensation charges: gauss, rc=0.30, lmax=2
  cutoffs: 1.69(filt), 1.81(core),
  valence states:
                energy  radius
    3s(2.00)   -14.015   0.953
    3p(3.00)    -5.596   0.953
    *s          13.197   0.953
    *p          21.615   0.953
    *d           0.000   0.953

[...]

Li-setup:
  name: Lithium
  id: b73562207f97a71b6967473b66fe8b65
  Z: 3.0
  valence: 1
  core: 2
  charge: 0.0
  file: /home/modules/software/GPAW-setups/0.9.20000/Li.LDA.gz
  compensation charges: gauss, rc=0.33, lmax=2
  cutoffs: 1.91(filt), 2.55(core),
  valence states:
                energy  radius
    2s(1.00)    -2.874   1.058
    2p(0.00)    -1.126   1.058
    *s          24.338   1.058

  Using partial waves for Li as LCAO basis

Reference energy: -196157.275402

Spin-polarized calculation.
Magnetic moment: 0.000000

Convergence criteria:
  Maximum total energy change: 0.0005 eV / electron
  Maximum integral of absolute density change: 0.0001 electrons
  Maximum integral of absolute eigenstate change: 4e-08 eV^2
  Maximum change in atomic force: 1e-06 eV / Ang
  Maximum number of iterations: 1000

Symmetries present (total): 1

  ( 1  0  0)
  ( 0  1  0)
  ( 0  0  1)

144 k-points: 6 x 6 x 4 Monkhorst-Pack grid
144 k-points in the irreducible part of the Brillouin zone
       k-points in crystal coordinates                weights
   0:    -0.41666667   -0.41666667   -0.37500000          1/144
   1:    -0.41666667   -0.41666667   -0.12500000          1/144
   2:    -0.41666667   -0.41666667    0.12500000          1/144
   3:    -0.41666667   -0.41666667    0.37500000          1/144
   4:    -0.41666667   -0.25000000   -0.37500000          1/144
   5:    -0.41666667   -0.25000000   -0.12500000          1/144
   6:    -0.41666667   -0.25000000    0.12500000          1/144
   7:    -0.41666667   -0.25000000    0.37500000          1/144
   8:    -0.41666667   -0.08333333   -0.37500000          1/144
   9:    -0.41666667   -0.08333333   -0.12500000          1/144
          ...
 143:     0.41666667    0.41666667    0.37500000          1/144

Wave functions: Plane wave expansion
  Cutoff energy: 600.000 eV
  Number of coefficients (min, max): 10068, 10125
  Pulay-stress correction: 0.000000 eV/Ang^3 (de/decut=0.000000)
  Using FFTW library
  ScaLapack parameters: grid=1x1, blocksize=None
  Wavefunction extrapolation:
    Improved wavefunction reuse through dual PAW basis

  Fermi-Dirac: width=0.0010 eV

Eigensolver
   Davidson(niter=2)

Densities:
  Coarse grid: 60*35*27 grid
  Fine grid: 120*70*54 grid
  Total Charge: 0.000000

Density mixing:
  Method: difference
  Backend: pulay
  Linear mixing parameter: 0.05
  Mixing with 5 old densities
  Damping of long wave oscillations: 50

Hamiltonian:
  XC and Coulomb potentials evaluated on a 120*70*54 grid
  Using the LDA Exchange-Correlation functional

Total number of cores used: 64
Parallelization over k-points: 16
Domain decomposition: 2 x 2 x 1

Number of atoms: 28
Number of atomic orbitals: 148
Number of bands in calculation: 112
Number of valence electrons: 180
Bands to converge: occupied

... initialized

Initializing position-dependent things.

Density initialized from atomic densities
Creating initial wave functions:
  112 bands from LCAO basis set

    /|         OP              |
   / |O            O        O  |
  /  |       O            O  P |
 *   |O    Mn      O           |
 |   |          OLi          O |
 |   .P-O--------------Mn------.
 |  /          Li    O  Mn  O /
 | /Li O           PO        /
 |/       Mn                /
 *Li-----------------------*

Positions:
   0 O     -1.360678   -2.541161   -1.202221    ( 0.0000,  0.0000,  0.0000)
   1 O     -3.121941    2.976855    1.167242    ( 0.0000,  0.0000,  0.0000)
   2 O      2.107533    0.508090    1.540712    ( 0.0000,  0.0000,  0.0000)
   3 O      3.869373   -0.072395   -0.828750    ( 0.0000,  0.0000,  0.0000)
   4 O      2.107821    2.976875    1.540792    ( 0.0000,  0.0000,  0.0000)
   5 O      3.869084   -2.541141   -0.828671    ( 0.0000,  0.0000,  0.0000)
   6 O     -1.360390   -0.072375   -1.202141    ( 0.0000,  0.0000,  0.0000)
   7 O     -3.122230    0.508109    1.167321    ( 0.0000,  0.0000,  0.0000)
   8 O     -4.413461   -1.306992   -0.794251    ( 0.0000,  0.0000,  0.0000)
   9 O     -0.069585    1.742707    1.575662    ( 0.0000,  0.0000,  0.0000)
  10 O      5.160604    1.742707    1.132822    ( 0.0000,  0.0000,  0.0000)
  11 O      0.816728   -1.306992   -1.237091    ( 0.0000,  0.0000,  0.0000)
  12 Mn    -2.570809   -1.307302    0.247161    ( 0.0000,  0.0000,  1.0000)
  13 Mn    -1.912021    1.743016   -2.122906    ( 0.0000,  0.0000, -1.0000)
  14 Mn     3.317952    1.743017    0.091411    ( 0.0000,  0.0000, -1.0000)
  15 Mn     2.659164   -1.307302    2.461478    ( 0.0000,  0.0000,  1.0000)
  16 P     -0.620664   -1.306816   -1.828465    ( 0.0000,  0.0000,  0.0000)
  17 P     -3.862097    1.742530    0.541238    ( 0.0000,  0.0000,  0.0000)
  18 P      1.367807    1.742530    2.167036    ( 0.0000,  0.0000,  0.0000)
  19 P      4.609240   -1.306816   -0.202666    ( 0.0000,  0.0000,  0.0000)
  20 O     -0.646437   -1.306845    1.374751    ( 0.0000,  0.0000,  0.0000)
  21 O     -3.836504    1.742559   -0.995565    ( 0.0000,  0.0000,  0.0000)
  22 O      1.383580    1.742559   -1.036179    ( 0.0000,  0.0000,  0.0000)
  23 O      4.583647   -1.306845    1.334136    ( 0.0000,  0.0000,  0.0000)
  24 Li    -4.856429   -2.832143   -2.200714    ( 0.0000,  0.0000,  0.0000)
  25 Li     0.373571   -2.832143    0.169286    ( 0.0000,  0.0000,  0.0000)
  26 Li    -4.856429    0.217857   -2.200714    ( 0.0000,  0.0000,  0.0000)
  27 Li     0.373571    0.217857    0.169286    ( 0.0000,  0.0000,  0.0000)

Unit cell:
           periodic     x           y           z      points  spacing
  1. axis:    yes   10.460000    0.000000    0.000000    60     0.1743
  2. axis:    yes    0.000000    6.100000    0.000000    35     0.1743
  3. axis:    yes    0.000000    0.000000    4.740000    27     0.1756

  Lengths:  10.460000   6.100000   4.740000
  Angles:   90.000000  90.000000  90.000000

Effective grid spacing dv^(1/3) = 0.1747

                     log10-error:           total        iterations:
           time      wfs    density  force  energy       poisson  magmom
iter:   1  18:54:19                       -231.918955             +0.0000
iter:   2  18:54:39  -0.55  -0.94         -231.740359             +0.0046
iter:   3  18:55:00  -0.72  -0.98         -220.577240             +0.0057
iter:   4  18:55:21  -0.96  -1.20         -218.856015             +0.0019
iter:   5  18:55:42  -1.91  -1.36         -221.298572             +0.0012
iter:   6  18:56:03  -1.97  -1.50         -220.433154             +0.0006
iter:   7  18:56:23  -2.18  -1.63         -224.541563             -0.0350
iter:   8  18:56:44  -2.48  -1.88         -223.941695             -0.0798
iter:   9  18:57:05  -2.46  -1.85         -227.074594             -0.0180
iter:  10  18:57:26  -2.72  -1.80         -227.658277             +0.0040
iter:  11  18:57:46  -1.66  -1.85         -227.139891             +0.0012
iter:  12  18:58:07  -2.71  -2.14         -226.758673             +0.0012
iter:  13  18:58:28  -2.48  -2.20         -226.391965             +0.0003
iter:  14  18:58:49  -2.30  -2.34         -226.243896             +0.0000
iter:  15  18:59:09  -3.16  -2.53         -226.247439             +0.0000
iter:  16  18:59:30  -3.16  -2.56         -226.245412             +0.0000
iter:  17  18:59:51  -3.11  -2.73         -226.238268             +0.0000
iter:  18  19:00:12  -3.48  -2.79         -226.233805             +0.0000
iter:  19  19:00:32  -4.23  -3.19         -226.237823             +0.0000
iter:  20  19:00:53  -3.65  -3.30         -226.228458             +0.0000
iter:  21  19:01:14  -5.04  -3.48         -226.227860             +0.0000
iter:  22  19:01:34  -5.21  -3.68         -226.227857             +0.0000
iter:  23  19:01:55  -5.50  -3.71         -226.227699             +0.0000
iter:  24  19:02:16  -5.29  -3.79         -226.227876             +0.0000
iter:  25  19:02:36  -5.68  -3.85         -226.227673             +0.0000
iter:  26  19:02:57  -5.70  -4.11         -226.227708             +0.0000
iter:  27  19:03:18  -5.98  -4.31         -226.227674             +0.0000
iter:  28  19:03:39  -7.31  -4.45         -226.227668             +0.0000
iter:  29  19:04:00  -7.31  -4.62         -226.227667             +0.0000
iter:  30  19:04:25  -7.42  -4.68         -226.227669             +0.0000
iter:  31  19:04:46  -7.19  -4.76         -226.227670             +0.0000
iter:  32  19:05:12  -8.33  -4.88    -2.47-226.227669             +0.0000
iter:  33  19:05:33  -7.06  -4.92         -226.227669             +0.0000
iter:  34  19:05:59  -7.74  -4.97    -2.81-226.227667             +0.0000
iter:  35  19:06:25  -9.32  -5.36    -3.93-226.227667             +0.0000
iter:  36  19:06:51  -8.42  -5.40    -3.47-226.227668             -0.0000
iter:  37  19:07:17  -9.46  -5.57    -3.40-226.227667             +0.0000
iter:  38  19:07:42  -8.67  -5.67    -3.41-226.227667             +0.0000
iter:  39  19:08:08  -9.68  -5.99    -3.99-226.227667             +0.0000
iter:  40  19:08:34 -10.83  -6.14    -4.33-226.227667             -0.0000
iter:  41  19:09:00 -10.16  -6.17    -3.97-226.227667             -0.0000
iter:  42  19:09:26 -11.35  -6.34    -4.47-226.227667             -0.0000
iter:  43  19:09:52 -10.77  -6.38    -4.36-226.227667             +0.0000
iter:  44  19:10:18 -11.66  -6.43    -4.49-226.227667             +0.0000
iter:  45  19:10:44 -11.21  -6.48    -4.51-226.227667             +0.0000
iter:  46  19:11:09 -11.06  -6.73    -4.54-226.227667             +0.0000
iter:  47  19:11:35 -11.72  -6.94    -4.97-226.227667             +0.0000
iter:  48  19:12:01 -12.62  -7.08    -5.43-226.227667             +0.0000
iter:  49  19:12:27 -11.93  -7.13    -4.89-226.227667             +0.0000
iter:  50  19:12:53 -12.68  -7.43    -5.53-226.227667             +0.0000
iter:  51  19:13:19 -12.49  -7.50    -5.47-226.227667             +0.0000
iter:  52  19:13:45 -13.42  -7.74    -5.45-226.227667             +0.0000
iter:  53  19:14:10 -13.14  -8.06    -5.65-226.227667             +0.0000
iter:  54  19:14:36 -14.40  -8.04    -6.15-226.227667             +0.0000

Converged after 54 iterations.

Dipole moment: (10.670593, 1.413472, -6.270420) |e|*Ang

Total magnetic moment: (0.000000, 0.000000, 0.000000)
Local magnetic moments:
   0 O  ( 0.000000,  0.000000, -0.000471)
   1 O  ( 0.000000,  0.000000,  0.000547)
   2 O  ( 0.000000,  0.000000,  0.000530)
   3 O  ( 0.000000,  0.000000, -0.000511)
   4 O  ( 0.000000,  0.000000,  0.000510)
   5 O  ( 0.000000,  0.000000, -0.000491)
   6 O  ( 0.000000,  0.000000, -0.000491)
   7 O  ( 0.000000,  0.000000,  0.000567)
   8 O  ( 0.000000,  0.000000,  0.028647)
   9 O  ( 0.000000,  0.000000, -0.028681)
  10 O  ( 0.000000,  0.000000, -0.028846)
  11 O  ( 0.000000,  0.000000,  0.028776)
  12 Mn ( 0.000000,  0.000000,  4.448179)
  13 Mn ( 0.000000,  0.000000, -4.448333)
  14 Mn ( 0.000000,  0.000000, -4.448530)
  15 Mn ( 0.000000,  0.000000,  4.448266)
  16 P  ( 0.000000,  0.000000,  0.001552)
  17 P  ( 0.000000,  0.000000, -0.001538)
  18 P  ( 0.000000,  0.000000, -0.001367)
  19 P  ( 0.000000,  0.000000,  0.001572)
  20 O  ( 0.000000,  0.000000,  0.025327)
  21 O  ( 0.000000,  0.000000, -0.025276)
  22 O  ( 0.000000,  0.000000, -0.025236)
  23 O  ( 0.000000,  0.000000,  0.025298)
  24 Li ( 0.000000,  0.000000,  0.000000)
  25 Li ( 0.000000,  0.000000,  0.000003)
  26 Li ( 0.000000,  0.000000,  0.000000)
  27 Li ( 0.000000,  0.000000,  0.000003)

Energy contributions relative to reference atoms: (reference = -196157.275402)

Kinetic:       +217.281101
Potential:     -195.179300
External:        +0.000000
XC:            -250.371009
Entropy (-ST):   -0.000000
Local:           +2.041541
Free energy:   -226.227667
Extrapolated:  -226.227667

Spin contamination: 9.560541 electrons
Showing only first 2 kpts
                      Up                     Down
 Kpt  Band  Eigenvalues  Occupancy  Eigenvalues  Occupancy
  0    88      5.10786    1.00000      5.10044    1.00000
  0    89      5.13363    1.00000      5.13187    1.00000
  0    90      7.28049    0.00000      7.28697    0.00000
  0    91      7.30680    0.00000      7.30516    0.00000

  1    88      5.13368    1.00000      5.12558    1.00000
  1    89      5.16406    1.00000      5.16150    1.00000
  1    90      7.22331    0.00000      7.22954    0.00000
  1    91      7.24527    0.00000      7.24275    0.00000

Fermi level: 6.52183

Gap: 1.968 eV
Transition (v -> c):
  (s=0, k=74, n=89, [0.08, -0.42, 0.12]) -> (s=0, k=86, n=90, [0.08, 0.08, 0.12])
Writing to born-0.01-22x-.gpw (mode='all')