User:   madkru@g064.nifl.fysik.dtu.dk
Date:   Sun Mar 21 19:48:10 2021
Arch:   x86_64
Pid:    60512
Python: 3.7.4
gpaw:   /home/niflheim/madkru/venv_folder/gpaw/gpaw (d0d1ca1c71)
_gpaw:  /home/niflheim/madkru/venv_folder/gpaw/build/lib.linux-x86_64-sandybridge-3.7/
        _gpaw.cpython-37m-x86_64-linux-gnu.so (4fd39e8b1e)
ase:    /home/niflheim/madkru/venv_folder/ase/ase (version 3.21.0b1-7e6c206a91)
numpy:  /home/niflheim/madkru/venv_folder/lib/python3.7/site-packages/numpy (version 1.19.4)
scipy:  /home/niflheim/madkru/venv_folder/lib/python3.7/site-packages/scipy (version 1.5.4)
units:  Angstrom and eV
cores: 32
OMP_NUM_THREADS: 1

Input parameters:
  convergence: {bands: occupied,
                density: 0.0001,
                eigenstates: 4e-08,
                energy: 0.0005,
                forces: 1e-06}
  kpts: [6 6 4]
  mode: {ecut: 600.0,
         gammacentered: False,
         name: pw}
  occupations: {fixmagmom: False,
                name: fermi-dirac,
                width: 0.001}
  symmetry: {point_group: False,
             time_reversal: False}

System changes: positions, numbers, cell, pbc, initial_charges, initial_magmoms

Initialize ...

O-setup:
  name: Oxygen
  id: 9b9d51c344dea68c822856295a461509
  Z: 8.0
  valence: 6
  core: 2
  charge: 0.0
  file: /home/modules/software/GPAW-setups/0.9.20000/O.LDA.gz
  compensation charges: gauss, rc=0.21, lmax=2
  cutoffs: 1.17(filt), 0.83(core),
  valence states:
                energy  radius
    2s(2.00)   -23.752   0.688
    2p(4.00)    -9.195   0.598
    *s           3.459   0.688
    *p          18.016   0.598
    *d           0.000   0.619

  Using partial waves for O as LCAO basis

Mn-setup:
  name: Manganese
  id: 0d715a8018be061a6e9ea6f2d364ac92
  Z: 25.0
  valence: 15
  core: 10
  charge: 0.0
  file: /home/modules/software/GPAW-setups/0.9.20000/Mn.LDA.gz
  compensation charges: gauss, rc=0.38, lmax=2
  cutoffs: 2.14(filt), 0.86(core),
  valence states:
                energy  radius
    3s(2.00)   -85.387   1.275
    4s(2.00)    -5.282   1.275
    3p(6.00)   -54.493   1.281
    4p(0.00)    -1.471   1.281
    3d(5.00)    -7.009   1.138
    *d          20.203   1.138

[...]

P-setup:
  name: Phosphorus
  id: a5561c299094968922a179ab894d2e2d
  Z: 15.0
  valence: 5
  core: 10
  charge: 0.0
  file: /home/modules/software/GPAW-setups/0.9.20000/P.LDA.gz
  compensation charges: gauss, rc=0.30, lmax=2
  cutoffs: 1.69(filt), 1.81(core),
  valence states:
                energy  radius
    3s(2.00)   -14.015   0.953
    3p(3.00)    -5.596   0.953
    *s          13.197   0.953
    *p          21.615   0.953
    *d           0.000   0.953

[...]

Li-setup:
  name: Lithium
  id: b73562207f97a71b6967473b66fe8b65
  Z: 3.0
  valence: 1
  core: 2
  charge: 0.0
  file: /home/modules/software/GPAW-setups/0.9.20000/Li.LDA.gz
  compensation charges: gauss, rc=0.33, lmax=2
  cutoffs: 1.91(filt), 2.55(core),
  valence states:
                energy  radius
    2s(1.00)    -2.874   1.058
    2p(0.00)    -1.126   1.058
    *s          24.338   1.058

  Using partial waves for Li as LCAO basis

Reference energy: -196157.275402

Spin-polarized calculation.
Magnetic moment: 0.000000

Convergence criteria:
  Maximum total energy change: 0.0005 eV / electron
  Maximum integral of absolute density change: 0.0001 electrons
  Maximum integral of absolute eigenstate change: 4e-08 eV^2
  Maximum change in atomic force: 1e-06 eV / Ang
  Maximum number of iterations: 333

Symmetries present (total): 1

  ( 1  0  0)
  ( 0  1  0)
  ( 0  0  1)

144 k-points: 6 x 6 x 4 Monkhorst-Pack grid
144 k-points in the irreducible part of the Brillouin zone
       k-points in crystal coordinates                weights
   0:    -0.41666667   -0.41666667   -0.37500000          1/144
   1:    -0.41666667   -0.41666667   -0.12500000          1/144
   2:    -0.41666667   -0.41666667    0.12500000          1/144
   3:    -0.41666667   -0.41666667    0.37500000          1/144
   4:    -0.41666667   -0.25000000   -0.37500000          1/144
   5:    -0.41666667   -0.25000000   -0.12500000          1/144
   6:    -0.41666667   -0.25000000    0.12500000          1/144
   7:    -0.41666667   -0.25000000    0.37500000          1/144
   8:    -0.41666667   -0.08333333   -0.37500000          1/144
   9:    -0.41666667   -0.08333333   -0.12500000          1/144
          ...
 143:     0.41666667    0.41666667    0.37500000          1/144

Wave functions: Plane wave expansion
  Cutoff energy: 600.000 eV
  Number of coefficients (min, max): 10068, 10125
  Pulay-stress correction: 0.000000 eV/Ang^3 (de/decut=0.000000)
  Using FFTW library
  ScaLapack parameters: grid=1x1, blocksize=None
  Wavefunction extrapolation:
    Improved wavefunction reuse through dual PAW basis

  Fermi-Dirac: width=0.0010 eV

Eigensolver
   Davidson(niter=2, smin=None, normalize=True)

Densities:
  Coarse grid: 60*35*27 grid
  Fine grid: 120*70*54 grid
  Total Charge: 0.000000

Density mixing:
  Method: difference
  Backend: pulay
  Linear mixing parameter: 0.05
  Mixing with 5 old densities
  Damping of long wave oscillations: 50

Hamiltonian:
  XC and Coulomb potentials evaluated on a 120*70*54 grid
  Using the LDA Exchange-Correlation functional

Total number of cores used: 32
Parallelization over k-points: 16
Domain decomposition: 2 x 1 x 1

Number of atoms: 28
Number of atomic orbitals: 148
Number of bands in calculation: 112
Number of valence electrons: 180
Bands to converge: occupied

... initialized

Initializing position-dependent things.

Density initialized from atomic densities
Creating initial wave functions:
  112 bands from LCAO basis set

    /|         OP              |
   / |O            O        O  |
  /  |       O            O  P |
 *   |O    Mn      O           |
 |   |          OLi          O |
 |   .P-O--------------Mn------.
 |  /          Li    O  Mn  O /
 | /Li O           PO        /
 |/       Mn                /
 *Li-----------------------*

Positions:
   0 O     -1.360678   -2.541161   -1.202221    ( 0.0000,  0.0000,  0.0000)
   1 O     -3.121941    2.976855    1.167242    ( 0.0000,  0.0000,  0.0000)
   2 O      2.107533    0.508090    1.540712    ( 0.0000,  0.0000,  0.0000)
   3 O      3.859373   -0.072395   -0.828750    ( 0.0000,  0.0000,  0.0000)
   4 O      2.107821    2.976875    1.540792    ( 0.0000,  0.0000,  0.0000)
   5 O      3.869084   -2.541141   -0.828671    ( 0.0000,  0.0000,  0.0000)
   6 O     -1.360390   -0.072375   -1.202141    ( 0.0000,  0.0000,  0.0000)
   7 O     -3.122230    0.508109    1.167321    ( 0.0000,  0.0000,  0.0000)
   8 O     -4.413461   -1.306992   -0.794251    ( 0.0000,  0.0000,  0.0000)
   9 O     -0.069585    1.742707    1.575662    ( 0.0000,  0.0000,  0.0000)
  10 O      5.160604    1.742707    1.132822    ( 0.0000,  0.0000,  0.0000)
  11 O      0.816728   -1.306992   -1.237091    ( 0.0000,  0.0000,  0.0000)
  12 Mn    -2.570809   -1.307302    0.247161    ( 0.0000,  0.0000,  1.0000)
  13 Mn    -1.912021    1.743016   -2.122906    ( 0.0000,  0.0000, -1.0000)
  14 Mn     3.317952    1.743017    0.091411    ( 0.0000,  0.0000, -1.0000)
  15 Mn     2.659164   -1.307302    2.461478    ( 0.0000,  0.0000,  1.0000)
  16 P     -0.620664   -1.306816   -1.828465    ( 0.0000,  0.0000,  0.0000)
  17 P     -3.862097    1.742530    0.541238    ( 0.0000,  0.0000,  0.0000)
  18 P      1.367807    1.742530    2.167036    ( 0.0000,  0.0000,  0.0000)
  19 P      4.609240   -1.306816   -0.202666    ( 0.0000,  0.0000,  0.0000)
  20 O     -0.646437   -1.306845    1.374751    ( 0.0000,  0.0000,  0.0000)
  21 O     -3.836504    1.742559   -0.995565    ( 0.0000,  0.0000,  0.0000)
  22 O      1.393580    1.742559   -1.036179    ( 0.0000,  0.0000,  0.0000)
  23 O      4.583647   -1.306845    1.334136    ( 0.0000,  0.0000,  0.0000)
  24 Li    -4.856429   -2.832143   -2.200714    ( 0.0000,  0.0000,  0.0000)
  25 Li     0.373571   -2.832143    0.169286    ( 0.0000,  0.0000,  0.0000)
  26 Li    -4.856429    0.217857   -2.200714    ( 0.0000,  0.0000,  0.0000)
  27 Li     0.373571    0.217857    0.169286    ( 0.0000,  0.0000,  0.0000)

Unit cell:
           periodic     x           y           z      points  spacing
  1. axis:    yes   10.460000    0.000000    0.000000    60     0.1743
  2. axis:    yes    0.000000    6.100000    0.000000    35     0.1743
  3. axis:    yes    0.000000    0.000000    4.740000    27     0.1756

  Lengths:  10.460000   6.100000   4.740000
  Angles:   90.000000  90.000000  90.000000

Effective grid spacing dv^(1/3) = 0.1747

                     log10-error:           total        iterations:
           time      wfs    density  force  energy       poisson  magmom
iter:   1  19:51:10                       -231.918807             +0.0000
iter:   2  19:51:50  -0.55  -0.94         -231.715212             +0.0103
iter:   3  19:52:29  -0.72  -0.98         -220.588209             +0.0129
iter:   4  19:53:08  -0.95  -1.20         -218.872194             +0.0052
iter:   5  19:53:48  -1.92  -1.36         -222.321684             +0.0032
iter:   6  19:54:27  -1.98  -1.43         -220.932938             +0.0015
iter:   7  19:55:07  -2.05  -1.64         -224.244560             -0.0071
iter:   8  19:55:46  -2.01  -1.82         -225.753626             -0.2029
iter:   9  19:56:26  -2.64  -1.82         -226.664889             -0.0875
iter:  10  19:57:05  -1.89  -1.83         -226.563520             -0.0043
iter:  11  19:57:45  -2.31  -2.02         -226.489031             -0.0011
iter:  12  19:58:24  -2.75  -2.20         -226.301740             -0.0001
iter:  13  19:59:03  -2.31  -2.38         -226.493407             -0.0002
iter:  14  19:59:43  -2.41  -2.27         -226.274903             -0.0000
iter:  15  20:00:22  -2.82  -2.63         -226.252129             -0.0000
iter:  16  20:01:01  -3.10  -2.74         -226.232061             -0.0000
iter:  17  20:01:41  -3.90  -3.03         -226.235623             -0.0000
iter:  18  20:02:20  -4.16  -3.11         -226.228403             +0.0000
iter:  19  20:03:00  -4.42  -3.24         -226.228726             -0.0000
iter:  20  20:03:39  -4.28  -3.36         -226.228441             -0.0000
iter:  21  20:04:18  -4.45  -3.35         -226.228517             -0.0000
iter:  22  20:04:58  -5.20  -3.66         -226.227856             -0.0000
iter:  23  20:05:37  -4.79  -3.79         -226.227437             -0.0000
iter:  24  20:06:17  -6.21  -4.20         -226.227382             -0.0000
iter:  25  20:06:56  -6.64  -4.26         -226.227378             +0.0000
iter:  26  20:07:35  -6.62  -4.32         -226.227383             +0.0000
iter:  27  20:08:15  -7.28  -4.44         -226.227381             +0.0000
iter:  28  20:09:05  -8.04  -4.53         -226.227383             +0.0000
iter:  29  20:09:55  -7.86  -4.59    -2.96-226.227380             +0.0000
iter:  30  20:10:44  -7.48  -4.66    -2.75-226.227377             +0.0000
iter:  31  20:11:34  -8.09  -4.71    -2.91-226.227376             +0.0000
iter:  32  20:12:24  -7.94  -4.82    -2.76-226.227375             +0.0000
iter:  33  20:13:14  -8.92  -4.91    -3.23-226.227375             +0.0000
iter:  34  20:14:04  -7.88  -4.94    -2.87-226.227374             -0.0000
iter:  35  20:14:54  -7.96  -5.16    -2.80-226.227375             +0.0000
iter:  36  20:15:44  -9.22  -5.29    -3.55-226.227374             -0.0000
iter:  37  20:16:34  -8.38  -5.34    -3.14-226.227374             -0.0000
iter:  38  20:17:24  -9.41  -5.65    -3.40-226.227374             -0.0000
iter:  39  20:18:14  -9.13  -5.74    -3.48-226.227374             -0.0000
iter:  40  20:19:04  -9.92  -5.88    -3.98-226.227374             -0.0000
iter:  41  20:19:54 -10.23  -5.94    -4.03-226.227374             -0.0000
iter:  42  20:20:44 -10.93  -5.97    -4.21-226.227374             -0.0000
iter:  43  20:21:34 -10.01  -6.00    -3.87-226.227374             -0.0000
iter:  44  20:22:24 -10.80  -6.13    -4.26-226.227374             -0.0000
iter:  45  20:23:14  -9.98  -6.20    -3.95-226.227374             -0.0000
iter:  46  20:24:04 -11.00  -6.33    -4.74-226.227374             -0.0000
iter:  47  20:24:54 -10.62  -6.36    -3.98-226.227374             -0.0000
iter:  48  20:25:44 -10.70  -6.58    -4.18-226.227374             -0.0000
iter:  49  20:26:33 -12.07  -6.72    -4.88-226.227374             -0.0000
iter:  50  20:27:23 -11.36  -6.75    -4.40-226.227374             -0.0000
iter:  51  20:28:13 -11.32  -6.85    -4.63-226.227374             -0.0000
iter:  52  20:29:03 -12.48  -7.01    -4.90-226.227374             -0.0000
iter:  53  20:29:53 -12.09  -7.09    -4.62-226.227374             -0.0000
iter:  54  20:30:43 -11.93  -7.24    -4.82-226.227374             -0.0000
iter:  55  20:31:33 -12.80  -7.38    -5.33-226.227374             -0.0000
iter:  56  20:32:23 -12.57  -7.44    -5.16-226.227374             -0.0000
iter:  57  20:33:13 -12.95  -7.64    -5.33-226.227374             -0.0000
iter:  58  20:34:03 -14.03  -7.76    -5.50-226.227374             -0.0000
iter:  59  20:34:53 -14.74  -7.80    -6.38-226.227374             -0.0000

Converged after 59 iterations.

Dipole moment: (10.676298, 1.415099, -6.266964) |e|*Ang

Total magnetic moment: (0.000000, 0.000000, -0.000000)
Local magnetic moments:
   0 O  ( 0.000000,  0.000000, -0.000499)
   1 O  ( 0.000000,  0.000000,  0.000553)
   2 O  ( 0.000000,  0.000000,  0.000516)
   3 O  ( 0.000000,  0.000000, -0.000510)
   4 O  ( 0.000000,  0.000000,  0.000450)
   5 O  ( 0.000000,  0.000000, -0.000515)
   6 O  ( 0.000000,  0.000000, -0.000519)
   7 O  ( 0.000000,  0.000000,  0.000577)
   8 O  ( 0.000000,  0.000000,  0.028575)
   9 O  ( 0.000000,  0.000000, -0.028756)
  10 O  ( 0.000000,  0.000000, -0.028646)
  11 O  ( 0.000000,  0.000000,  0.028702)
  12 Mn ( 0.000000,  0.000000,  4.448140)
  13 Mn ( 0.000000,  0.000000, -4.448233)
  14 Mn ( 0.000000,  0.000000, -4.447416)
  15 Mn ( 0.000000,  0.000000,  4.447657)
  16 P  ( 0.000000,  0.000000,  0.001568)
  17 P  ( 0.000000,  0.000000, -0.001555)
  18 P  ( 0.000000,  0.000000, -0.001546)
  19 P  ( 0.000000,  0.000000,  0.001584)
  20 O  ( 0.000000,  0.000000,  0.025357)
  21 O  ( 0.000000,  0.000000, -0.025281)
  22 O  ( 0.000000,  0.000000, -0.025351)
  23 O  ( 0.000000,  0.000000,  0.025270)
  24 Li ( 0.000000,  0.000000, -0.000003)
  25 Li ( 0.000000,  0.000000,  0.000000)
  26 Li ( 0.000000,  0.000000,  0.000004)
  27 Li ( 0.000000,  0.000000, -0.000000)

Energy contributions relative to reference atoms: (reference = -196157.275402)

Kinetic:       +217.087335
Potential:     -195.035859
External:        +0.000000
XC:            -250.320341
Entropy (-ST):   -0.000000
Local:           +2.041490
Free energy:   -226.227374
Extrapolated:  -226.227374

Spin contamination: 9.559610 electrons
Showing only first 2 kpts
                      Up                     Down
 Kpt  Band  Eigenvalues  Occupancy  Eigenvalues  Occupancy
  0    88      5.10987    0.00694      5.11203    0.00694
  0    89      5.13692    0.00694      5.13905    0.00694
  0    90      7.29072    0.00000      7.28786    0.00000
  0    91      7.30907    0.00000      7.31155    0.00000

  1    88      5.13605    0.00694      5.13791    0.00694
  1    89      5.16703    0.00694      5.16931    0.00694
  1    90      7.23324    0.00000      7.23008    0.00000
  1    91      7.24665    0.00000      7.25116    0.00000

Fermi level: 6.13445

Gap: 1.970 eV
Transition (v -> c):
  (s=1, k=94, n=89, [0.08, 0.42, 0.12]) -> (s=1, k=57, n=90, [-0.08, -0.08, -0.12])
Writing to born-0.01-3x-.gpw (mode='all')