User:   madkru@g043.nifl.fysik.dtu.dk
Date:   Tue Mar 30 21:26:12 2021
Arch:   x86_64
Pid:    39387
Python: 3.8.6
gpaw:   /home/niflheim/madkru/venv_madkru/gpaw/gpaw (e6f0d78a31)
_gpaw:  /home/niflheim/madkru/venv_madkru/gpaw/build/lib.linux-x86_64-sandybridge-3.8/
        _gpaw.cpython-38-x86_64-linux-gnu.so (e6f0d78a31)
ase:    /home/niflheim/madkru/venv_madkru/ase/ase (version 3.22.0b1-4d5a73cb29)
numpy:  /home/modules/software/SciPy-bundle/2020.11-foss-2020b/lib/python3.8/site-packages/numpy (version 1.19.4)
scipy:  /home/modules/software/SciPy-bundle/2020.11-foss-2020b/lib/python3.8/site-packages/scipy (version 1.5.4)
units:  Angstrom and eV
cores: 64
OpenMP: False
OMP_NUM_THREADS: 1

Input parameters:
  convergence: {bands: occupied,
                density: 0.0001,
                eigenstates: 4e-08,
                energy: 0.0005,
                forces: 1e-06}
  kpts: [6 6 4]
  maxiter: 1000
  mode: {ecut: 600.0,
         gammacentered: False,
         name: pw}
  occupations: {fixmagmom: False,
                name: fermi-dirac,
                width: 0.001}
  symmetry: {point_group: False,
             time_reversal: False}

System changes: positions, numbers, cell, pbc, initial_charges, initial_magmoms

Initialize ...

O-setup:
  name: Oxygen
  id: 9b9d51c344dea68c822856295a461509
  Z: 8.0
  valence: 6
  core: 2
  charge: 0.0
  file: /home/modules/software/GPAW-setups/0.9.20000/O.LDA.gz
  compensation charges: gauss, rc=0.21, lmax=2
  cutoffs: 1.17(filt), 0.83(core),
  valence states:
                energy  radius
    2s(2.00)   -23.752   0.688
    2p(4.00)    -9.195   0.598
    *s           3.459   0.688
    *p          18.016   0.598
    *d           0.000   0.619

  Using partial waves for O as LCAO basis

Mn-setup:
  name: Manganese
  id: 0d715a8018be061a6e9ea6f2d364ac92
  Z: 25.0
  valence: 15
  core: 10
  charge: 0.0
  file: /home/modules/software/GPAW-setups/0.9.20000/Mn.LDA.gz
  compensation charges: gauss, rc=0.38, lmax=2
  cutoffs: 2.14(filt), 0.86(core),
  valence states:
                energy  radius
    3s(2.00)   -85.387   1.275
    4s(2.00)    -5.282   1.275
    3p(6.00)   -54.493   1.281
    4p(0.00)    -1.471   1.281
    3d(5.00)    -7.009   1.138
    *d          20.203   1.138

[...]

P-setup:
  name: Phosphorus
  id: a5561c299094968922a179ab894d2e2d
  Z: 15.0
  valence: 5
  core: 10
  charge: 0.0
  file: /home/modules/software/GPAW-setups/0.9.20000/P.LDA.gz
  compensation charges: gauss, rc=0.30, lmax=2
  cutoffs: 1.69(filt), 1.81(core),
  valence states:
                energy  radius
    3s(2.00)   -14.015   0.953
    3p(3.00)    -5.596   0.953
    *s          13.197   0.953
    *p          21.615   0.953
    *d           0.000   0.953

[...]

Li-setup:
  name: Lithium
  id: b73562207f97a71b6967473b66fe8b65
  Z: 3.0
  valence: 1
  core: 2
  charge: 0.0
  file: /home/modules/software/GPAW-setups/0.9.20000/Li.LDA.gz
  compensation charges: gauss, rc=0.33, lmax=2
  cutoffs: 1.91(filt), 2.55(core),
  valence states:
                energy  radius
    2s(1.00)    -2.874   1.058
    2p(0.00)    -1.126   1.058
    *s          24.338   1.058

  Using partial waves for Li as LCAO basis

Reference energy: -196157.275402

Spin-polarized calculation.
Magnetic moment: 0.000000

Convergence criteria:
  Maximum total energy change: 0.0005 eV / electron
  Maximum integral of absolute density change: 0.0001 electrons
  Maximum integral of absolute eigenstate change: 4e-08 eV^2
  Maximum change in atomic force: 1e-06 eV / Ang
  Maximum number of iterations: 1000

Symmetries present (total): 1

  ( 1  0  0)
  ( 0  1  0)
  ( 0  0  1)

144 k-points: 6 x 6 x 4 Monkhorst-Pack grid
144 k-points in the irreducible part of the Brillouin zone
       k-points in crystal coordinates                weights
   0:    -0.41666667   -0.41666667   -0.37500000          1/144
   1:    -0.41666667   -0.41666667   -0.12500000          1/144
   2:    -0.41666667   -0.41666667    0.12500000          1/144
   3:    -0.41666667   -0.41666667    0.37500000          1/144
   4:    -0.41666667   -0.25000000   -0.37500000          1/144
   5:    -0.41666667   -0.25000000   -0.12500000          1/144
   6:    -0.41666667   -0.25000000    0.12500000          1/144
   7:    -0.41666667   -0.25000000    0.37500000          1/144
   8:    -0.41666667   -0.08333333   -0.37500000          1/144
   9:    -0.41666667   -0.08333333   -0.12500000          1/144
          ...
 143:     0.41666667    0.41666667    0.37500000          1/144

Wave functions: Plane wave expansion
  Cutoff energy: 600.000 eV
  Number of coefficients (min, max): 10068, 10125
  Pulay-stress correction: 0.000000 eV/Ang^3 (de/decut=0.000000)
  Using FFTW library
  ScaLapack parameters: grid=1x1, blocksize=None
  Wavefunction extrapolation:
    Improved wavefunction reuse through dual PAW basis

  Fermi-Dirac: width=0.0010 eV

Eigensolver
   Davidson(niter=2)

Densities:
  Coarse grid: 60*35*27 grid
  Fine grid: 120*70*54 grid
  Total Charge: 0.000000

Density mixing:
  Method: difference
  Backend: pulay
  Linear mixing parameter: 0.05
  Mixing with 5 old densities
  Damping of long wave oscillations: 50

Hamiltonian:
  XC and Coulomb potentials evaluated on a 120*70*54 grid
  Using the LDA Exchange-Correlation functional

Total number of cores used: 64
Parallelization over k-points: 16
Domain decomposition: 2 x 2 x 1

Number of atoms: 28
Number of atomic orbitals: 148
Number of bands in calculation: 112
Number of valence electrons: 180
Bands to converge: occupied

... initialized

Initializing position-dependent things.

Density initialized from atomic densities
Creating initial wave functions:
  112 bands from LCAO basis set

    /|         OP              |
   / |O            O        O  |
  /  |       O            O  P |
 *   |O    Mn      O           |
 |   |          OLi          O |
 |   .P-O--------------Mn------.
 |  /          Li    O  Mn  O /
 | /Li O           PO        /
 |/       Mn                /
 *Li-----------------------*

Positions:
   0 O     -1.360678   -2.541161   -1.202221    ( 0.0000,  0.0000,  0.0000)
   1 O     -3.121941    2.976855    1.167242    ( 0.0000,  0.0000,  0.0000)
   2 O      2.107533    0.508090    1.540712    ( 0.0000,  0.0000,  0.0000)
   3 O      3.869373   -0.072395   -0.828750    ( 0.0000,  0.0000,  0.0000)
   4 O      2.107821    2.976875    1.540792    ( 0.0000,  0.0000,  0.0000)
   5 O      3.869084   -2.541141   -0.828671    ( 0.0000,  0.0000,  0.0000)
   6 O     -1.360390   -0.072375   -1.202141    ( 0.0000,  0.0000,  0.0000)
   7 O     -3.122230    0.508109    1.167321    ( 0.0000,  0.0000,  0.0000)
   8 O     -4.413461   -1.306992   -0.794251    ( 0.0000,  0.0000,  0.0000)
   9 O     -0.069585    1.742707    1.575662    ( 0.0000,  0.0000,  0.0000)
  10 O      5.160604    1.742707    1.132822    ( 0.0000,  0.0000,  0.0000)
  11 O      0.816728   -1.306992   -1.237091    ( 0.0000,  0.0000,  0.0000)
  12 Mn    -2.570809   -1.307302    0.247161    ( 0.0000,  0.0000,  1.0000)
  13 Mn    -1.912021    1.743016   -2.122906    ( 0.0000,  0.0000, -1.0000)
  14 Mn     3.327952    1.743017    0.091411    ( 0.0000,  0.0000, -1.0000)
  15 Mn     2.659164   -1.307302    2.461478    ( 0.0000,  0.0000,  1.0000)
  16 P     -0.620664   -1.306816   -1.828465    ( 0.0000,  0.0000,  0.0000)
  17 P     -3.862097    1.742530    0.541238    ( 0.0000,  0.0000,  0.0000)
  18 P      1.367807    1.742530    2.167036    ( 0.0000,  0.0000,  0.0000)
  19 P      4.609240   -1.306816   -0.202666    ( 0.0000,  0.0000,  0.0000)
  20 O     -0.646437   -1.306845    1.374751    ( 0.0000,  0.0000,  0.0000)
  21 O     -3.836504    1.742559   -0.995565    ( 0.0000,  0.0000,  0.0000)
  22 O      1.393580    1.742559   -1.036179    ( 0.0000,  0.0000,  0.0000)
  23 O      4.583647   -1.306845    1.334136    ( 0.0000,  0.0000,  0.0000)
  24 Li    -4.856429   -2.832143   -2.200714    ( 0.0000,  0.0000,  0.0000)
  25 Li     0.373571   -2.832143    0.169286    ( 0.0000,  0.0000,  0.0000)
  26 Li    -4.856429    0.217857   -2.200714    ( 0.0000,  0.0000,  0.0000)
  27 Li     0.373571    0.217857    0.169286    ( 0.0000,  0.0000,  0.0000)

Unit cell:
           periodic     x           y           z      points  spacing
  1. axis:    yes   10.460000    0.000000    0.000000    60     0.1743
  2. axis:    yes    0.000000    6.100000    0.000000    35     0.1743
  3. axis:    yes    0.000000    0.000000    4.740000    27     0.1756

  Lengths:  10.460000   6.100000   4.740000
  Angles:   90.000000  90.000000  90.000000

Effective grid spacing dv^(1/3) = 0.1747

                     log10-error:           total        iterations:
           time      wfs    density  force  energy       poisson  magmom
iter:   1  21:27:47                       -231.919111             +0.0000
iter:   2  21:28:09  -0.55  -0.94         -231.743333             +0.0049
iter:   3  21:28:30  -0.72  -0.98         -220.595392             +0.0062
iter:   4  21:28:51  -0.94  -1.20         -218.889360             +0.0021
iter:   5  21:29:13  -1.93  -1.36         -222.168235             +0.0013
iter:   6  21:29:34  -1.98  -1.44         -220.979248             +0.0006
iter:   7  21:29:55  -2.07  -1.65         -224.298439             +0.0004
iter:   8  21:30:17  -1.86  -1.86         -226.213615             -0.2697
iter:   9  21:30:38  -2.96  -1.82         -226.985011             -0.0912
iter:  10  21:30:59  -3.32  -1.82         -227.175825             -0.0084
iter:  11  21:31:20  -2.15  -1.82         -226.699068             +0.0021
iter:  12  21:31:42  -1.88  -1.84         -226.753635             -0.0011
iter:  13  21:32:03  -3.01  -1.96         -226.518555             +0.0013
iter:  14  21:32:24  -1.85  -1.96         -226.403676             +0.0031
iter:  15  21:32:45  -2.68  -2.43         -226.287718             +0.0006
iter:  16  21:33:07  -2.77  -2.55         -226.258259             -0.0002
iter:  17  21:33:28  -3.22  -2.73         -226.241975             +0.0000
iter:  18  21:33:49  -4.30  -2.86         -226.235018             +0.0001
iter:  19  21:34:10  -3.62  -3.01         -226.229292             +0.0000
iter:  20  21:34:32  -4.39  -3.20         -226.229477             +0.0000
iter:  21  21:34:53  -3.95  -3.24         -226.229999             +0.0000
iter:  22  21:35:14  -4.89  -3.50         -226.227995             +0.0000
iter:  23  21:35:35  -5.38  -3.63         -226.227780             +0.0000
iter:  24  21:35:57  -5.31  -3.68         -226.228067             +0.0000
iter:  25  21:36:18  -5.30  -3.80         -226.227602             +0.0000
iter:  26  21:36:39  -5.89  -3.91         -226.227594             +0.0000
iter:  27  21:37:00  -6.21  -3.96         -226.227599             +0.0000
iter:  28  21:37:22  -6.19  -4.04         -226.227593             -0.0000
iter:  29  21:37:43  -6.81  -4.08         -226.227584             -0.0000
iter:  30  21:38:04  -6.52  -4.14         -226.227587             -0.0000
iter:  31  21:38:25  -7.11  -4.20         -226.227581             -0.0000
iter:  32  21:38:47  -7.20  -4.23         -226.227579             -0.0000
iter:  33  21:39:13  -7.49  -4.32         -226.227579             +0.0000
iter:  34  21:39:35  -6.80  -4.39         -226.227584             +0.0000
iter:  35  21:40:01  -7.83  -4.62    -2.20-226.227580             +0.0000
iter:  36  21:40:23  -6.76  -4.68         -226.227576             +0.0000
iter:  37  21:40:49  -7.89  -4.91    -2.40-226.227575             +0.0000
iter:  38  21:41:16  -8.59  -5.07    -3.28-226.227575             +0.0000
iter:  39  21:41:43  -8.83  -5.11    -3.49-226.227575             +0.0000
iter:  40  21:42:09  -8.69  -5.17    -3.30-226.227575             -0.0000
iter:  41  21:42:36  -9.00  -5.25    -3.29-226.227575             -0.0000
iter:  42  21:43:03  -9.04  -5.32    -3.38-226.227575             +0.0000
iter:  43  21:43:29  -9.51  -5.38    -3.50-226.227574             +0.0000
iter:  44  21:43:56  -9.01  -5.41    -3.18-226.227574             +0.0000
iter:  45  21:44:23  -9.85  -5.66    -3.88-226.227574             +0.0000
iter:  46  21:44:50  -8.97  -5.72    -3.49-226.227574             -0.0000
iter:  47  21:45:16 -10.02  -6.14    -3.92-226.227574             +0.0000
iter:  48  21:45:43 -11.10  -6.26    -4.43-226.227574             +0.0000
iter:  49  21:46:10  -9.98  -6.28    -3.90-226.227574             +0.0000
iter:  50  21:46:36 -11.23  -6.44    -4.53-226.227574             +0.0000
iter:  51  21:47:03 -10.85  -6.63    -4.41-226.227574             +0.0000
iter:  52  21:47:30 -12.26  -6.71    -5.04-226.227574             +0.0000
iter:  53  21:47:56 -11.60  -6.76    -4.43-226.227574             +0.0000
iter:  54  21:48:23 -11.49  -6.97    -4.76-226.227574             +0.0000
iter:  55  21:48:50 -12.44  -7.02    -5.05-226.227574             +0.0000
iter:  56  21:49:17 -12.53  -7.08    -5.32-226.227574             +0.0000
iter:  57  21:49:43 -12.83  -7.19    -5.08-226.227574             +0.0000
iter:  58  21:50:10 -13.49  -7.28    -5.67-226.227574             +0.0000
iter:  59  21:50:37 -12.61  -7.33    -5.36-226.227574             +0.0000
iter:  60  21:51:03 -13.43  -7.45    -5.57-226.227574             +0.0000
iter:  61  21:51:30 -12.72  -7.48    -5.26-226.227574             +0.0000
iter:  62  21:51:57 -13.63  -7.64    -5.58-226.227574             +0.0000
iter:  63  21:52:24 -13.23  -7.76    -5.51-226.227574             +0.0000
iter:  64  21:52:50 -13.91  -7.84    -5.75-226.227574             +0.0000
iter:  65  21:53:17 -14.22  -8.02    -5.86-226.227574             +0.0000
iter:  66  21:53:44 -14.85  -8.33    -6.53-226.227574             +0.0000

Converged after 66 iterations.

Dipole moment: (10.681386, 1.412529, -6.270464) |e|*Ang

Total magnetic moment: (0.000000, 0.000000, 0.000000)
Local magnetic moments:
   0 O  ( 0.000000,  0.000000, -0.000497)
   1 O  ( 0.000000,  0.000000,  0.000510)
   2 O  ( 0.000000,  0.000000,  0.000893)
   3 O  ( 0.000000,  0.000000, -0.000793)
   4 O  ( 0.000000,  0.000000,  0.000873)
   5 O  ( 0.000000,  0.000000, -0.000773)
   6 O  ( 0.000000,  0.000000, -0.000517)
   7 O  ( 0.000000,  0.000000,  0.000530)
   8 O  ( 0.000000,  0.000000,  0.028672)
   9 O  ( 0.000000,  0.000000, -0.028769)
  10 O  ( 0.000000,  0.000000, -0.029140)
  11 O  ( 0.000000,  0.000000,  0.028731)
  12 Mn ( 0.000000,  0.000000,  4.448151)
  13 Mn ( 0.000000,  0.000000, -4.448270)
  14 Mn ( 0.000000,  0.000000, -4.447810)
  15 Mn ( 0.000000,  0.000000,  4.448412)
  16 P  ( 0.000000,  0.000000,  0.001562)
  17 P  ( 0.000000,  0.000000, -0.001670)
  18 P  ( 0.000000,  0.000000, -0.001391)
  19 P  ( 0.000000,  0.000000,  0.001499)
  20 O  ( 0.000000,  0.000000,  0.025346)
  21 O  ( 0.000000,  0.000000, -0.025278)
  22 O  ( 0.000000,  0.000000, -0.024944)
  23 O  ( 0.000000,  0.000000,  0.025250)
  24 Li ( 0.000000,  0.000000, -0.000010)
  25 Li ( 0.000000,  0.000000, -0.000002)
  26 Li ( 0.000000,  0.000000, -0.000010)
  27 Li ( 0.000000,  0.000000, -0.000002)

Energy contributions relative to reference atoms: (reference = -196157.275402)

Kinetic:       +217.357257
Potential:     -195.246205
External:        +0.000000
XC:            -250.379704
Entropy (-ST):   -0.000000
Local:           +2.041078
Free energy:   -226.227574
Extrapolated:  -226.227574

Spin contamination: 9.560810 electrons
Showing only first 2 kpts
                      Up                     Down
 Kpt  Band  Eigenvalues  Occupancy  Eigenvalues  Occupancy
  0    88      5.11050    1.00000      5.11068    1.00000
  0    89      5.13548    1.00000      5.13773    1.00000
  0    90      7.28763    0.00000      7.28822    0.00000
  0    91      7.30549    0.00000      7.30778    0.00000

  1    88      5.13626    1.00000      5.13629    1.00000
  1    89      5.16580    1.00000      5.16782    1.00000
  1    90      7.22977    0.00000      7.23083    0.00000
  1    91      7.24238    0.00000      7.24542    0.00000

Fermi level: 5.92403

Gap: 1.967 eV
Transition (v -> c):
  (s=1, k=74, n=89, [0.08, -0.42, 0.12]) -> (s=0, k=57, n=90, [-0.08, -0.08, -0.12])
Writing to born-0.01-14x+.gpw (mode='all')