User:   madkru@i009.nifl.fysik.dtu.dk
Date:   Fri Apr  2 11:21:08 2021
Arch:   x86_64
Pid:    31381
Python: 3.8.6
gpaw:   /home/niflheim/madkru/venv_madkru/gpaw/gpaw (e6f0d78a31)
_gpaw:  /home/niflheim/madkru/venv_madkru/gpaw/build/lib.linux-x86_64-ivybridge-3.8/
        _gpaw.cpython-38-x86_64-linux-gnu.so (e6f0d78a31)
ase:    /home/niflheim/madkru/venv_madkru/ase/ase (version 3.22.0b1-4d5a73cb29)
numpy:  /home/modules/software/SciPy-bundle/2020.11-foss-2020b/lib/python3.8/site-packages/numpy (version 1.19.4)
scipy:  /home/modules/software/SciPy-bundle/2020.11-foss-2020b/lib/python3.8/site-packages/scipy (version 1.5.4)
units:  Angstrom and eV
cores: 64
OpenMP: False
OMP_NUM_THREADS: 1

Input parameters:
  convergence: {bands: occupied,
                density: 0.0001,
                eigenstates: 4e-08,
                energy: 0.0005,
                forces: 1e-06}
  kpts: [6 6 4]
  maxiter: 1000
  mode: {ecut: 600.0,
         gammacentered: False,
         name: pw}
  occupations: {fixmagmom: False,
                name: fermi-dirac,
                width: 0.001}
  symmetry: {point_group: False,
             time_reversal: False}

System changes: positions, numbers, cell, pbc, initial_charges, initial_magmoms

Initialize ...

O-setup:
  name: Oxygen
  id: 9b9d51c344dea68c822856295a461509
  Z: 8.0
  valence: 6
  core: 2
  charge: 0.0
  file: /home/modules/software/GPAW-setups/0.9.20000/O.LDA.gz
  compensation charges: gauss, rc=0.21, lmax=2
  cutoffs: 1.17(filt), 0.83(core),
  valence states:
                energy  radius
    2s(2.00)   -23.752   0.688
    2p(4.00)    -9.195   0.598
    *s           3.459   0.688
    *p          18.016   0.598
    *d           0.000   0.619

  Using partial waves for O as LCAO basis

Mn-setup:
  name: Manganese
  id: 0d715a8018be061a6e9ea6f2d364ac92
  Z: 25.0
  valence: 15
  core: 10
  charge: 0.0
  file: /home/modules/software/GPAW-setups/0.9.20000/Mn.LDA.gz
  compensation charges: gauss, rc=0.38, lmax=2
  cutoffs: 2.14(filt), 0.86(core),
  valence states:
                energy  radius
    3s(2.00)   -85.387   1.275
    4s(2.00)    -5.282   1.275
    3p(6.00)   -54.493   1.281
    4p(0.00)    -1.471   1.281
    3d(5.00)    -7.009   1.138
    *d          20.203   1.138

[...]

P-setup:
  name: Phosphorus
  id: a5561c299094968922a179ab894d2e2d
  Z: 15.0
  valence: 5
  core: 10
  charge: 0.0
  file: /home/modules/software/GPAW-setups/0.9.20000/P.LDA.gz
  compensation charges: gauss, rc=0.30, lmax=2
  cutoffs: 1.69(filt), 1.81(core),
  valence states:
                energy  radius
    3s(2.00)   -14.015   0.953
    3p(3.00)    -5.596   0.953
    *s          13.197   0.953
    *p          21.615   0.953
    *d           0.000   0.953

[...]

Li-setup:
  name: Lithium
  id: b73562207f97a71b6967473b66fe8b65
  Z: 3.0
  valence: 1
  core: 2
  charge: 0.0
  file: /home/modules/software/GPAW-setups/0.9.20000/Li.LDA.gz
  compensation charges: gauss, rc=0.33, lmax=2
  cutoffs: 1.91(filt), 2.55(core),
  valence states:
                energy  radius
    2s(1.00)    -2.874   1.058
    2p(0.00)    -1.126   1.058
    *s          24.338   1.058

  Using partial waves for Li as LCAO basis

Reference energy: -196157.275402

Spin-polarized calculation.
Magnetic moment: 0.000000

Convergence criteria:
  Maximum total energy change: 0.0005 eV / electron
  Maximum integral of absolute density change: 0.0001 electrons
  Maximum integral of absolute eigenstate change: 4e-08 eV^2
  Maximum change in atomic force: 1e-06 eV / Ang
  Maximum number of iterations: 1000

Symmetries present (total): 1

  ( 1  0  0)
  ( 0  1  0)
  ( 0  0  1)

144 k-points: 6 x 6 x 4 Monkhorst-Pack grid
144 k-points in the irreducible part of the Brillouin zone
       k-points in crystal coordinates                weights
   0:    -0.41666667   -0.41666667   -0.37500000          1/144
   1:    -0.41666667   -0.41666667   -0.12500000          1/144
   2:    -0.41666667   -0.41666667    0.12500000          1/144
   3:    -0.41666667   -0.41666667    0.37500000          1/144
   4:    -0.41666667   -0.25000000   -0.37500000          1/144
   5:    -0.41666667   -0.25000000   -0.12500000          1/144
   6:    -0.41666667   -0.25000000    0.12500000          1/144
   7:    -0.41666667   -0.25000000    0.37500000          1/144
   8:    -0.41666667   -0.08333333   -0.37500000          1/144
   9:    -0.41666667   -0.08333333   -0.12500000          1/144
          ...
 143:     0.41666667    0.41666667    0.37500000          1/144

Wave functions: Plane wave expansion
  Cutoff energy: 600.000 eV
  Number of coefficients (min, max): 10068, 10125
  Pulay-stress correction: 0.000000 eV/Ang^3 (de/decut=0.000000)
  Using FFTW library
  ScaLapack parameters: grid=1x1, blocksize=None
  Wavefunction extrapolation:
    Improved wavefunction reuse through dual PAW basis

  Fermi-Dirac: width=0.0010 eV

Eigensolver
   Davidson(niter=2)

Densities:
  Coarse grid: 60*35*27 grid
  Fine grid: 120*70*54 grid
  Total Charge: 0.000000

Density mixing:
  Method: difference
  Backend: pulay
  Linear mixing parameter: 0.05
  Mixing with 5 old densities
  Damping of long wave oscillations: 50

Hamiltonian:
  XC and Coulomb potentials evaluated on a 120*70*54 grid
  Using the LDA Exchange-Correlation functional

Total number of cores used: 64
Parallelization over k-points: 16
Domain decomposition: 2 x 2 x 1

Number of atoms: 28
Number of atomic orbitals: 148
Number of bands in calculation: 112
Number of valence electrons: 180
Bands to converge: occupied

... initialized

Initializing position-dependent things.

Density initialized from atomic densities
Creating initial wave functions:
  112 bands from LCAO basis set

    /|         OP              |
   / |O            O        O  |
  /  |       O            O  P |
 *   |O    Mn      O           |
 |   |          OLi          O |
 |   .P-O--------------Mn------.
 |  /          Li    O  Mn  O /
 | /Li O           PO        /
 |/       Mn                /
 *Li-----------------------*

Positions:
   0 O     -1.360678   -2.541161   -1.202221    ( 0.0000,  0.0000,  0.0000)
   1 O     -3.121941    2.976855    1.167242    ( 0.0000,  0.0000,  0.0000)
   2 O      2.107533    0.508090    1.540712    ( 0.0000,  0.0000,  0.0000)
   3 O      3.869373   -0.072395   -0.828750    ( 0.0000,  0.0000,  0.0000)
   4 O      2.107821    2.976875    1.540792    ( 0.0000,  0.0000,  0.0000)
   5 O      3.869084   -2.541141   -0.828671    ( 0.0000,  0.0000,  0.0000)
   6 O     -1.360390   -0.072375   -1.202141    ( 0.0000,  0.0000,  0.0000)
   7 O     -3.122230    0.508109    1.167321    ( 0.0000,  0.0000,  0.0000)
   8 O     -4.413461   -1.306992   -0.794251    ( 0.0000,  0.0000,  0.0000)
   9 O     -0.069585    1.742707    1.575662    ( 0.0000,  0.0000,  0.0000)
  10 O      5.160604    1.742707    1.132822    ( 0.0000,  0.0000,  0.0000)
  11 O      0.816728   -1.306992   -1.237091    ( 0.0000,  0.0000,  0.0000)
  12 Mn    -2.570809   -1.307302    0.247161    ( 0.0000,  0.0000,  1.0000)
  13 Mn    -1.912021    1.743016   -2.122906    ( 0.0000,  0.0000, -1.0000)
  14 Mn     3.317952    1.743017    0.091411    ( 0.0000,  0.0000, -1.0000)
  15 Mn     2.659164   -1.307302    2.461478    ( 0.0000,  0.0000,  1.0000)
  16 P     -0.620664   -1.306816   -1.828465    ( 0.0000,  0.0000,  0.0000)
  17 P     -3.862097    1.742530    0.541238    ( 0.0000,  0.0000,  0.0000)
  18 P      1.367807    1.742530    2.167036    ( 0.0000,  0.0000,  0.0000)
  19 P      4.609240   -1.306816   -0.202666    ( 0.0000,  0.0000,  0.0000)
  20 O     -0.646437   -1.306845    1.374751    ( 0.0000,  0.0000,  0.0000)
  21 O     -3.836504    1.742559   -0.995565    ( 0.0000,  0.0000,  0.0000)
  22 O      1.393580    1.742559   -1.036179    ( 0.0000,  0.0000,  0.0000)
  23 O      4.583647   -1.306845    1.334136    ( 0.0000,  0.0000,  0.0000)
  24 Li    -4.856429   -2.832143   -2.200714    ( 0.0000,  0.0000,  0.0000)
  25 Li     0.373571   -2.832143    0.169286    ( 0.0000,  0.0000,  0.0000)
  26 Li    -4.856429    0.217857   -2.190714    ( 0.0000,  0.0000,  0.0000)
  27 Li     0.373571    0.217857    0.169286    ( 0.0000,  0.0000,  0.0000)

Unit cell:
           periodic     x           y           z      points  spacing
  1. axis:    yes   10.460000    0.000000    0.000000    60     0.1743
  2. axis:    yes    0.000000    6.100000    0.000000    35     0.1743
  3. axis:    yes    0.000000    0.000000    4.740000    27     0.1756

  Lengths:  10.460000   6.100000   4.740000
  Angles:   90.000000  90.000000  90.000000

Effective grid spacing dv^(1/3) = 0.1747

                     log10-error:           total        iterations:
           time      wfs    density  force  energy       poisson  magmom
iter:   1  11:22:37                       -231.920322             +0.0000
iter:   2  11:22:58  -0.55  -0.94         -231.730957             +0.0047
iter:   3  11:23:19  -0.72  -0.98         -220.584901             +0.0059
iter:   4  11:23:40  -0.96  -1.20         -218.866384             +0.0019
iter:   5  11:24:00  -1.94  -1.36         -221.273137             +0.0013
iter:   6  11:24:21  -1.99  -1.50         -219.982502             +0.0007
iter:   7  11:24:42  -2.21  -1.68         -223.065036             +0.1892
iter:   8  11:25:03  -2.72  -1.89         -219.929009             +0.2677
iter:   9  11:25:24  -2.14  -1.93         -225.490702             +0.5450
iter:  10  11:25:44  -2.23  -1.87         -227.332849             -0.1372
iter:  11  11:26:05  -2.84  -1.83         -227.163853             -0.0225
iter:  12  11:26:26  -2.23  -1.82         -227.094561             -0.0023
iter:  13  11:26:47  -2.49  -1.81         -227.198271             -0.0081
iter:  14  11:27:07  -2.78  -1.95         -227.068388             +0.0005
iter:  15  11:27:28  -1.78  -1.99         -226.574811             +0.0037
iter:  16  11:27:49  -2.45  -2.21         -226.416967             +0.0007
iter:  17  11:28:10  -2.54  -2.26         -226.376778             -0.0002
iter:  18  11:28:30  -3.47  -2.45         -226.376876             -0.0001
iter:  19  11:28:51  -2.73  -2.51         -226.236516             -0.0000
iter:  20  11:29:12  -3.35  -2.69         -226.250739             -0.0000
iter:  21  11:29:33  -4.20  -2.77         -226.244617             -0.0000
iter:  22  11:29:53  -3.99  -2.83         -226.236616             +0.0000
iter:  23  11:30:14  -3.92  -2.93         -226.233668             +0.0000
iter:  24  11:30:35  -4.44  -2.97         -226.231459             +0.0000
iter:  25  11:30:56  -4.54  -3.04         -226.230252             +0.0000
iter:  26  11:31:16  -4.81  -3.09         -226.230484             +0.0000
iter:  27  11:31:37  -4.43  -3.14         -226.229057             +0.0000
iter:  28  11:31:58  -5.41  -3.24         -226.228877             +0.0000
iter:  29  11:32:19  -4.51  -3.28         -226.230288             +0.0000
iter:  30  11:32:39  -5.76  -3.43         -226.229804             +0.0000
iter:  31  11:33:00  -4.33  -3.47         -226.228105             +0.0000
iter:  32  11:33:21  -5.87  -3.88         -226.227981             +0.0000
iter:  33  11:33:41  -5.56  -3.94         -226.227976             +0.0000
iter:  34  11:34:02  -5.60  -4.05         -226.227955             +0.0000
iter:  35  11:34:23  -6.27  -4.27         -226.227916             +0.0000
iter:  36  11:34:44  -7.23  -4.46         -226.227915             -0.0000
iter:  37  11:35:04  -7.19  -4.52         -226.227917             -0.0000
iter:  38  11:35:25  -6.98  -4.59         -226.227914             -0.0000
iter:  39  11:35:51  -8.00  -4.68         -226.227913             -0.0000
iter:  40  11:36:12  -7.04  -4.73         -226.227916             -0.0000
iter:  41  11:36:32  -7.22  -4.93         -226.227912             -0.0000
iter:  42  11:36:58  -8.78  -5.24    -2.53-226.227912             -0.0000
iter:  43  11:37:24  -8.32  -5.27    -3.16-226.227912             +0.0000
iter:  44  11:37:50  -8.63  -5.44    -3.32-226.227912             +0.0000
iter:  45  11:38:16  -8.90  -5.54    -3.40-226.227912             +0.0000
iter:  46  11:38:42  -9.56  -5.55    -3.55-226.227912             +0.0000
iter:  47  11:39:08  -8.88  -5.66    -3.37-226.227912             +0.0000
iter:  48  11:39:34 -10.16  -6.03    -4.05-226.227912             +0.0000
iter:  49  11:40:00 -10.39  -6.14    -3.97-226.227912             +0.0000
iter:  50  11:40:26 -10.71  -6.25    -4.44-226.227912             +0.0000
iter:  51  11:40:52 -10.89  -6.34    -4.21-226.227912             +0.0000
iter:  52  11:41:17 -11.28  -6.46    -4.75-226.227912             +0.0000
iter:  53  11:41:43 -10.68  -6.48    -4.45-226.227912             +0.0000
iter:  54  11:42:09 -11.72  -6.85    -4.90-226.227912             +0.0000
iter:  55  11:42:35 -12.57  -7.03    -5.72-226.227912             -0.0000
iter:  56  11:43:01 -12.06  -7.08    -4.90-226.227912             -0.0000
iter:  57  11:43:27 -12.81  -7.25    -5.55-226.227912             -0.0000
iter:  58  11:43:52 -13.21  -7.28    -5.58-226.227912             +0.0000
iter:  59  11:44:18 -12.47  -7.33    -5.02-226.227912             +0.0000
iter:  60  11:44:44 -13.24  -7.53    -5.42-226.227912             -0.0000
iter:  61  11:45:10 -12.98  -7.69    -5.54-226.227912             -0.0000
iter:  62  11:45:36 -13.80  -7.82    -5.70-226.227912             -0.0000
iter:  63  11:46:02 -14.43  -8.05    -6.14-226.227912             -0.0000

Converged after 63 iterations.

Dipole moment: (10.671321, 1.411746, -6.264165) |e|*Ang

Total magnetic moment: (0.000000, 0.000000, -0.000000)
Local magnetic moments:
   0 O  ( 0.000000,  0.000000, -0.000518)
   1 O  ( 0.000000,  0.000000,  0.000538)
   2 O  ( 0.000000,  0.000000,  0.000540)
   3 O  ( 0.000000,  0.000000, -0.000559)
   4 O  ( 0.000000,  0.000000,  0.000519)
   5 O  ( 0.000000,  0.000000, -0.000529)
   6 O  ( 0.000000,  0.000000, -0.000535)
   7 O  ( 0.000000,  0.000000,  0.000549)
   8 O  ( 0.000000,  0.000000,  0.028652)
   9 O  ( 0.000000,  0.000000, -0.028704)
  10 O  ( 0.000000,  0.000000, -0.028733)
  11 O  ( 0.000000,  0.000000,  0.028699)
  12 Mn ( 0.000000,  0.000000,  4.448174)
  13 Mn ( 0.000000,  0.000000, -4.448220)
  14 Mn ( 0.000000,  0.000000, -4.448149)
  15 Mn ( 0.000000,  0.000000,  4.448263)
  16 P  ( 0.000000,  0.000000,  0.001558)
  17 P  ( 0.000000,  0.000000, -0.001543)
  18 P  ( 0.000000,  0.000000, -0.001558)
  19 P  ( 0.000000,  0.000000,  0.001544)
  20 O  ( 0.000000,  0.000000,  0.025321)
  21 O  ( 0.000000,  0.000000, -0.025287)
  22 O  ( 0.000000,  0.000000, -0.025309)
  23 O  ( 0.000000,  0.000000,  0.025324)
  24 Li ( 0.000000,  0.000000, -0.000001)
  25 Li ( 0.000000,  0.000000,  0.000000)
  26 Li ( 0.000000,  0.000000,  0.000008)
  27 Li ( 0.000000,  0.000000,  0.000000)

Energy contributions relative to reference atoms: (reference = -196157.275402)

Kinetic:       +217.352901
Potential:     -195.237770
External:        +0.000000
XC:            -250.384194
Entropy (-ST):   -0.000000
Local:           +2.041151
Free energy:   -226.227912
Extrapolated:  -226.227912

Spin contamination: 9.560411 electrons
Showing only first 2 kpts
                      Up                     Down
 Kpt  Band  Eigenvalues  Occupancy  Eigenvalues  Occupancy
  0    88      5.10984    1.00000      5.10994    1.00000
  0    89      5.13430    1.00000      5.13444    1.00000
  0    90      7.28865    0.00000      7.28864    0.00000
  0    91      7.30634    0.00000      7.30636    0.00000

  1    88      5.13559    1.00000      5.13564    1.00000
  1    89      5.16470    1.00000      5.16495    1.00000
  1    90      7.23149    0.00000      7.23138    0.00000
  1    91      7.24374    0.00000      7.24357    0.00000

Fermi level: 6.02633

Gap: 1.972 eV
Transition (v -> c):
  (s=1, k=69, n=89, [-0.08, 0.42, -0.12]) -> (s=1, k=58, n=90, [-0.08, -0.08, 0.12])
Writing to born-0.01-26z+.gpw (mode='all')