User:   madkru@g014.nifl.fysik.dtu.dk
Date:   Wed Mar 24 09:01:15 2021
Arch:   x86_64
Pid:    6329
Python: 3.7.4
gpaw:   /home/niflheim/madkru/venv_folder/gpaw/gpaw (d0d1ca1c71)
_gpaw:  /home/niflheim/madkru/venv_folder/gpaw/build/lib.linux-x86_64-sandybridge-3.7/
        _gpaw.cpython-37m-x86_64-linux-gnu.so (4fd39e8b1e)
ase:    /home/niflheim/madkru/venv_folder/ase/ase (version 3.21.0b1-7e6c206a91)
numpy:  /home/niflheim/madkru/venv_folder/lib/python3.7/site-packages/numpy (version 1.19.4)
scipy:  /home/niflheim/madkru/venv_folder/lib/python3.7/site-packages/scipy (version 1.5.4)
units:  Angstrom and eV
cores: 64
OMP_NUM_THREADS: 1

Input parameters:
  convergence: {bands: occupied,
                density: 0.0001,
                eigenstates: 4e-08,
                energy: 0.0005,
                forces: 1e-06}
  kpts: [6 6 4]
  mode: {ecut: 600.0,
         gammacentered: False,
         name: pw}
  occupations: {fixmagmom: False,
                name: fermi-dirac,
                width: 0.001}
  symmetry: {point_group: False,
             time_reversal: False}

System changes: positions, numbers, cell, pbc, initial_charges, initial_magmoms

Initialize ...

O-setup:
  name: Oxygen
  id: 9b9d51c344dea68c822856295a461509
  Z: 8.0
  valence: 6
  core: 2
  charge: 0.0
  file: /home/modules/software/GPAW-setups/0.9.20000/O.LDA.gz
  compensation charges: gauss, rc=0.21, lmax=2
  cutoffs: 1.17(filt), 0.83(core),
  valence states:
                energy  radius
    2s(2.00)   -23.752   0.688
    2p(4.00)    -9.195   0.598
    *s           3.459   0.688
    *p          18.016   0.598
    *d           0.000   0.619

  Using partial waves for O as LCAO basis

Mn-setup:
  name: Manganese
  id: 0d715a8018be061a6e9ea6f2d364ac92
  Z: 25.0
  valence: 15
  core: 10
  charge: 0.0
  file: /home/modules/software/GPAW-setups/0.9.20000/Mn.LDA.gz
  compensation charges: gauss, rc=0.38, lmax=2
  cutoffs: 2.14(filt), 0.86(core),
  valence states:
                energy  radius
    3s(2.00)   -85.387   1.275
    4s(2.00)    -5.282   1.275
    3p(6.00)   -54.493   1.281
    4p(0.00)    -1.471   1.281
    3d(5.00)    -7.009   1.138
    *d          20.203   1.138

[...]

P-setup:
  name: Phosphorus
  id: a5561c299094968922a179ab894d2e2d
  Z: 15.0
  valence: 5
  core: 10
  charge: 0.0
  file: /home/modules/software/GPAW-setups/0.9.20000/P.LDA.gz
  compensation charges: gauss, rc=0.30, lmax=2
  cutoffs: 1.69(filt), 1.81(core),
  valence states:
                energy  radius
    3s(2.00)   -14.015   0.953
    3p(3.00)    -5.596   0.953
    *s          13.197   0.953
    *p          21.615   0.953
    *d           0.000   0.953

[...]

Li-setup:
  name: Lithium
  id: b73562207f97a71b6967473b66fe8b65
  Z: 3.0
  valence: 1
  core: 2
  charge: 0.0
  file: /home/modules/software/GPAW-setups/0.9.20000/Li.LDA.gz
  compensation charges: gauss, rc=0.33, lmax=2
  cutoffs: 1.91(filt), 2.55(core),
  valence states:
                energy  radius
    2s(1.00)    -2.874   1.058
    2p(0.00)    -1.126   1.058
    *s          24.338   1.058

  Using partial waves for Li as LCAO basis

Reference energy: -196157.275402

Spin-polarized calculation.
Magnetic moment: 0.000000

Convergence criteria:
  Maximum total energy change: 0.0005 eV / electron
  Maximum integral of absolute density change: 0.0001 electrons
  Maximum integral of absolute eigenstate change: 4e-08 eV^2
  Maximum change in atomic force: 1e-06 eV / Ang
  Maximum number of iterations: 333

Symmetries present (total): 1

  ( 1  0  0)
  ( 0  1  0)
  ( 0  0  1)

144 k-points: 6 x 6 x 4 Monkhorst-Pack grid
144 k-points in the irreducible part of the Brillouin zone
       k-points in crystal coordinates                weights
   0:    -0.41666667   -0.41666667   -0.37500000          1/144
   1:    -0.41666667   -0.41666667   -0.12500000          1/144
   2:    -0.41666667   -0.41666667    0.12500000          1/144
   3:    -0.41666667   -0.41666667    0.37500000          1/144
   4:    -0.41666667   -0.25000000   -0.37500000          1/144
   5:    -0.41666667   -0.25000000   -0.12500000          1/144
   6:    -0.41666667   -0.25000000    0.12500000          1/144
   7:    -0.41666667   -0.25000000    0.37500000          1/144
   8:    -0.41666667   -0.08333333   -0.37500000          1/144
   9:    -0.41666667   -0.08333333   -0.12500000          1/144
          ...
 143:     0.41666667    0.41666667    0.37500000          1/144

Wave functions: Plane wave expansion
  Cutoff energy: 600.000 eV
  Number of coefficients (min, max): 10068, 10125
  Pulay-stress correction: 0.000000 eV/Ang^3 (de/decut=0.000000)
  Using FFTW library
  ScaLapack parameters: grid=1x1, blocksize=None
  Wavefunction extrapolation:
    Improved wavefunction reuse through dual PAW basis

  Fermi-Dirac: width=0.0010 eV

Eigensolver
   Davidson(niter=2, smin=None, normalize=True)

Densities:
  Coarse grid: 60*35*27 grid
  Fine grid: 120*70*54 grid
  Total Charge: 0.000000

Density mixing:
  Method: difference
  Backend: pulay
  Linear mixing parameter: 0.05
  Mixing with 5 old densities
  Damping of long wave oscillations: 50

Hamiltonian:
  XC and Coulomb potentials evaluated on a 120*70*54 grid
  Using the LDA Exchange-Correlation functional

Total number of cores used: 64
Parallelization over k-points: 16
Domain decomposition: 2 x 2 x 1

Number of atoms: 28
Number of atomic orbitals: 148
Number of bands in calculation: 112
Number of valence electrons: 180
Bands to converge: occupied

... initialized

Initializing position-dependent things.

Density initialized from atomic densities
Creating initial wave functions:
  112 bands from LCAO basis set

    /|         OP              |
   / |O            O        O  |
  /  |       O            O  P |
 *   |O    Mn      O           |
 |   |          OLi          O |
 |   .P-O--------------Mn------.
 |  /          Li    O  Mn  O /
 | /Li O           PO        /
 |/       Mn                /
 *Li-----------------------*

Positions:
   0 O     -1.360678   -2.541161   -1.202221    ( 0.0000,  0.0000,  0.0000)
   1 O     -3.121941    2.976855    1.167242    ( 0.0000,  0.0000,  0.0000)
   2 O      2.107533    0.508090    1.540712    ( 0.0000,  0.0000,  0.0000)
   3 O      3.869373   -0.072395   -0.828750    ( 0.0000,  0.0000,  0.0000)
   4 O      2.107821    2.976875    1.540792    ( 0.0000,  0.0000,  0.0000)
   5 O      3.869084   -2.541141   -0.828671    ( 0.0000,  0.0000,  0.0000)
   6 O     -1.360390   -0.072375   -1.202141    ( 0.0000,  0.0000,  0.0000)
   7 O     -3.122230    0.508109    1.167321    ( 0.0000,  0.0000,  0.0000)
   8 O     -4.413461   -1.306992   -0.784251    ( 0.0000,  0.0000,  0.0000)
   9 O     -0.069585    1.742707    1.575662    ( 0.0000,  0.0000,  0.0000)
  10 O      5.160604    1.742707    1.132822    ( 0.0000,  0.0000,  0.0000)
  11 O      0.816728   -1.306992   -1.237091    ( 0.0000,  0.0000,  0.0000)
  12 Mn    -2.570809   -1.307302    0.247161    ( 0.0000,  0.0000,  1.0000)
  13 Mn    -1.912021    1.743016   -2.122906    ( 0.0000,  0.0000, -1.0000)
  14 Mn     3.317952    1.743017    0.091411    ( 0.0000,  0.0000, -1.0000)
  15 Mn     2.659164   -1.307302    2.461478    ( 0.0000,  0.0000,  1.0000)
  16 P     -0.620664   -1.306816   -1.828465    ( 0.0000,  0.0000,  0.0000)
  17 P     -3.862097    1.742530    0.541238    ( 0.0000,  0.0000,  0.0000)
  18 P      1.367807    1.742530    2.167036    ( 0.0000,  0.0000,  0.0000)
  19 P      4.609240   -1.306816   -0.202666    ( 0.0000,  0.0000,  0.0000)
  20 O     -0.646437   -1.306845    1.374751    ( 0.0000,  0.0000,  0.0000)
  21 O     -3.836504    1.742559   -0.995565    ( 0.0000,  0.0000,  0.0000)
  22 O      1.393580    1.742559   -1.036179    ( 0.0000,  0.0000,  0.0000)
  23 O      4.583647   -1.306845    1.334136    ( 0.0000,  0.0000,  0.0000)
  24 Li    -4.856429   -2.832143   -2.200714    ( 0.0000,  0.0000,  0.0000)
  25 Li     0.373571   -2.832143    0.169286    ( 0.0000,  0.0000,  0.0000)
  26 Li    -4.856429    0.217857   -2.200714    ( 0.0000,  0.0000,  0.0000)
  27 Li     0.373571    0.217857    0.169286    ( 0.0000,  0.0000,  0.0000)

Unit cell:
           periodic     x           y           z      points  spacing
  1. axis:    yes   10.460000    0.000000    0.000000    60     0.1743
  2. axis:    yes    0.000000    6.100000    0.000000    35     0.1743
  3. axis:    yes    0.000000    0.000000    4.740000    27     0.1756

  Lengths:  10.460000   6.100000   4.740000
  Angles:   90.000000  90.000000  90.000000

Effective grid spacing dv^(1/3) = 0.1747

                     log10-error:           total        iterations:
           time      wfs    density  force  energy       poisson  magmom
iter:   1  09:02:47                       -231.918211             +0.0000
iter:   2  09:03:09  -0.55  -0.94         -231.724857             +0.0047
iter:   3  09:03:30  -0.72  -0.98         -220.588210             +0.0059
iter:   4  09:03:52  -0.96  -1.20         -218.868506             +0.0020
iter:   5  09:04:13  -1.93  -1.36         -221.129864             +0.0013
iter:   6  09:04:35  -1.97  -1.51         -219.926148             +0.0007
iter:   7  09:04:57  -2.25  -1.67         -222.201562             -0.0033
iter:   8  09:05:18  -2.74  -1.90         -219.453048             -0.0042
iter:   9  09:05:40  -2.50  -1.97         -222.110164             +0.3977
iter:  10  09:06:01  -2.22  -1.96         -225.440751             +1.7145
iter:  11  09:06:23  -2.79  -1.87         -226.763778             +0.6957
iter:  12  09:06:44  -2.45  -1.83         -227.151992             -0.1177
iter:  13  09:07:06  -2.47  -1.88         -226.889158             -0.0385
iter:  14  09:07:27  -2.60  -1.94         -226.634091             -0.0159
iter:  15  09:07:49  -1.92  -2.02         -226.634540             -0.0105
iter:  16  09:08:10  -3.04  -2.31         -226.439146             -0.0055
iter:  17  09:08:32  -2.54  -2.38         -226.285595             +0.0018
iter:  18  09:08:53  -2.68  -2.58         -226.325088             +0.0009
iter:  19  09:09:15  -3.37  -2.66         -226.263713             +0.0003
iter:  20  09:09:36  -3.45  -2.69         -226.241007             +0.0001
iter:  21  09:09:58  -4.02  -2.74         -226.238574             +0.0001
iter:  22  09:10:19  -4.04  -2.77         -226.228865             +0.0001
iter:  23  09:10:41  -3.61  -2.90         -226.237413             +0.0000
iter:  24  09:11:02  -3.48  -3.04         -226.229616             -0.0000
iter:  25  09:11:24  -4.52  -3.26         -226.227699             +0.0000
iter:  26  09:11:45  -4.95  -3.52         -226.227908             +0.0000
iter:  27  09:12:07  -5.59  -3.59         -226.227674             +0.0000
iter:  28  09:12:28  -5.51  -3.68         -226.227564             +0.0000
iter:  29  09:12:50  -6.05  -3.81         -226.227575             +0.0000
iter:  30  09:13:11  -6.45  -3.86         -226.227511             +0.0000
iter:  31  09:13:33  -6.29  -3.96         -226.227515             +0.0000
iter:  32  09:13:54  -6.13  -4.10         -226.227470             -0.0000
iter:  33  09:14:16  -7.22  -4.44         -226.227470             +0.0000
iter:  34  09:14:37  -6.70  -4.47         -226.227468             +0.0000
iter:  35  09:14:59  -6.66  -4.53         -226.227471             +0.0000
iter:  36  09:15:25  -7.51  -4.63         -226.227468             +0.0000
iter:  37  09:15:47  -6.82  -4.69         -226.227466             +0.0000
iter:  38  09:16:14  -7.82  -5.07    -2.42-226.227465             +0.0000
iter:  39  09:16:41  -8.92  -5.27    -3.26-226.227465             +0.0000
iter:  40  09:17:08  -9.12  -5.36    -3.51-226.227465             +0.0000
iter:  41  09:17:34  -8.34  -5.40    -2.96-226.227465             +0.0000
iter:  42  09:18:01  -8.31  -5.45    -3.04-226.227465             -0.0000
iter:  43  09:18:28  -9.66  -5.84    -3.65-226.227465             +0.0000
iter:  44  09:18:55  -9.40  -6.07    -3.57-226.227465             +0.0000
iter:  45  09:19:22  -9.56  -6.04    -3.72-226.227465             +0.0000
iter:  46  09:19:49 -10.16  -6.37    -4.26-226.227465             -0.0000
iter:  47  09:20:16 -10.42  -6.50    -4.32-226.227465             +0.0000
iter:  48  09:20:43 -10.83  -6.49    -4.24-226.227465             +0.0000
iter:  49  09:21:10 -12.13  -6.78    -5.12-226.227465             +0.0000
iter:  50  09:21:36 -11.73  -6.80    -4.96-226.227465             -0.0000
iter:  51  09:22:03 -11.70  -6.83    -4.61-226.227465             -0.0000
iter:  52  09:22:30 -12.16  -6.98    -4.91-226.227465             -0.0000
iter:  53  09:22:57 -13.20  -7.10    -5.76-226.227465             +0.0000
iter:  54  09:23:24 -12.61  -7.14    -4.83-226.227465             +0.0000
iter:  55  09:23:51 -12.47  -7.45    -5.13-226.227465             +0.0000
iter:  56  09:24:18 -13.51  -7.67    -5.47-226.227465             +0.0000
iter:  57  09:24:45 -14.24  -7.77    -5.96-226.227465             -0.0000
iter:  58  09:25:12 -13.54  -7.83    -5.33-226.227465             +0.0000
iter:  59  09:25:38 -13.87  -8.05    -5.74-226.227465             +0.0000
iter:  60  09:26:05 -14.96  -8.16    -6.51-226.227465             +0.0000

Converged after 60 iterations.

Dipole moment: (10.672108, 1.412826, -6.233250) |e|*Ang

Total magnetic moment: (0.000000, 0.000000, 0.000000)
Local magnetic moments:
   0 O  ( 0.000000,  0.000000, -0.000511)
   1 O  ( 0.000000,  0.000000,  0.000563)
   2 O  ( 0.000000,  0.000000,  0.000536)
   3 O  ( 0.000000,  0.000000, -0.000507)
   4 O  ( 0.000000,  0.000000,  0.000516)
   5 O  ( 0.000000,  0.000000, -0.000487)
   6 O  ( 0.000000,  0.000000, -0.000531)
   7 O  ( 0.000000,  0.000000,  0.000583)
   8 O  ( 0.000000,  0.000000,  0.028741)
   9 O  ( 0.000000,  0.000000, -0.028710)
  10 O  ( 0.000000,  0.000000, -0.028676)
  11 O  ( 0.000000,  0.000000,  0.028667)
  12 Mn ( 0.000000,  0.000000,  4.447666)
  13 Mn ( 0.000000,  0.000000, -4.448222)
  14 Mn ( 0.000000,  0.000000, -4.448136)
  15 Mn ( 0.000000,  0.000000,  4.448328)
  16 P  ( 0.000000,  0.000000,  0.001563)
  17 P  ( 0.000000,  0.000000, -0.001534)
  18 P  ( 0.000000,  0.000000, -0.001551)
  19 P  ( 0.000000,  0.000000,  0.001596)
  20 O  ( 0.000000,  0.000000,  0.025279)
  21 O  ( 0.000000,  0.000000, -0.025292)
  22 O  ( 0.000000,  0.000000, -0.025308)
  23 O  ( 0.000000,  0.000000,  0.025424)
  24 Li ( 0.000000,  0.000000, -0.000006)
  25 Li ( 0.000000,  0.000000,  0.000000)
  26 Li ( 0.000000,  0.000000, -0.000006)
  27 Li ( 0.000000,  0.000000,  0.000000)

Energy contributions relative to reference atoms: (reference = -196157.275402)

Kinetic:       +217.668818
Potential:     -195.483793
External:        +0.000000
XC:            -250.452645
Entropy (-ST):   -0.000000
Local:           +2.040155
Free energy:   -226.227465
Extrapolated:  -226.227465

Spin contamination: 9.560283 electrons
Showing only first 2 kpts
                      Up                     Down
 Kpt  Band  Eigenvalues  Occupancy  Eigenvalues  Occupancy
  0    88      5.11535    0.00694      5.11041    0.00694
  0    89      5.13910    0.00694      5.13486    0.00694
  0    90      7.28930    0.00000      7.29092    0.00000
  0    91      7.30693    0.00000      7.30867    0.00000

  1    88      5.14074    0.00694      5.13608    0.00694
  1    89      5.16982    0.00694      5.16529    0.00694
  1    90      7.23208    0.00000      7.23326    0.00000
  1    91      7.24423    0.00000      7.24572    0.00000

Fermi level: 6.19720

Gap: 1.968 eV
Transition (v -> c):
  (s=0, k=70, n=89, [-0.08, 0.42, 0.12]) -> (s=0, k=85, n=90, [0.08, 0.08, -0.12])