User:   madkru@i009.nifl.fysik.dtu.dk
Date:   Thu Apr  1 18:19:55 2021
Arch:   x86_64
Pid:    31381
Python: 3.8.6
gpaw:   /home/niflheim/madkru/venv_madkru/gpaw/gpaw (e6f0d78a31)
_gpaw:  /home/niflheim/madkru/venv_madkru/gpaw/build/lib.linux-x86_64-ivybridge-3.8/
        _gpaw.cpython-38-x86_64-linux-gnu.so (e6f0d78a31)
ase:    /home/niflheim/madkru/venv_madkru/ase/ase (version 3.22.0b1-4d5a73cb29)
numpy:  /home/modules/software/SciPy-bundle/2020.11-foss-2020b/lib/python3.8/site-packages/numpy (version 1.19.4)
scipy:  /home/modules/software/SciPy-bundle/2020.11-foss-2020b/lib/python3.8/site-packages/scipy (version 1.5.4)
units:  Angstrom and eV
cores: 64
OpenMP: False
OMP_NUM_THREADS: 1

Input parameters:
  convergence: {bands: occupied,
                density: 0.0001,
                eigenstates: 4e-08,
                energy: 0.0005,
                forces: 1e-06}
  kpts: [6 6 4]
  maxiter: 1000
  mode: {ecut: 600.0,
         gammacentered: False,
         name: pw}
  occupations: {fixmagmom: False,
                name: fermi-dirac,
                width: 0.001}
  symmetry: {point_group: False,
             time_reversal: False}

System changes: positions, numbers, cell, pbc, initial_charges, initial_magmoms

Initialize ...

O-setup:
  name: Oxygen
  id: 9b9d51c344dea68c822856295a461509
  Z: 8.0
  valence: 6
  core: 2
  charge: 0.0
  file: /home/modules/software/GPAW-setups/0.9.20000/O.LDA.gz
  compensation charges: gauss, rc=0.21, lmax=2
  cutoffs: 1.17(filt), 0.83(core),
  valence states:
                energy  radius
    2s(2.00)   -23.752   0.688
    2p(4.00)    -9.195   0.598
    *s           3.459   0.688
    *p          18.016   0.598
    *d           0.000   0.619

  Using partial waves for O as LCAO basis

Mn-setup:
  name: Manganese
  id: 0d715a8018be061a6e9ea6f2d364ac92
  Z: 25.0
  valence: 15
  core: 10
  charge: 0.0
  file: /home/modules/software/GPAW-setups/0.9.20000/Mn.LDA.gz
  compensation charges: gauss, rc=0.38, lmax=2
  cutoffs: 2.14(filt), 0.86(core),
  valence states:
                energy  radius
    3s(2.00)   -85.387   1.275
    4s(2.00)    -5.282   1.275
    3p(6.00)   -54.493   1.281
    4p(0.00)    -1.471   1.281
    3d(5.00)    -7.009   1.138
    *d          20.203   1.138

[...]

P-setup:
  name: Phosphorus
  id: a5561c299094968922a179ab894d2e2d
  Z: 15.0
  valence: 5
  core: 10
  charge: 0.0
  file: /home/modules/software/GPAW-setups/0.9.20000/P.LDA.gz
  compensation charges: gauss, rc=0.30, lmax=2
  cutoffs: 1.69(filt), 1.81(core),
  valence states:
                energy  radius
    3s(2.00)   -14.015   0.953
    3p(3.00)    -5.596   0.953
    *s          13.197   0.953
    *p          21.615   0.953
    *d           0.000   0.953

[...]

Li-setup:
  name: Lithium
  id: b73562207f97a71b6967473b66fe8b65
  Z: 3.0
  valence: 1
  core: 2
  charge: 0.0
  file: /home/modules/software/GPAW-setups/0.9.20000/Li.LDA.gz
  compensation charges: gauss, rc=0.33, lmax=2
  cutoffs: 1.91(filt), 2.55(core),
  valence states:
                energy  radius
    2s(1.00)    -2.874   1.058
    2p(0.00)    -1.126   1.058
    *s          24.338   1.058

  Using partial waves for Li as LCAO basis

Reference energy: -196157.275402

Spin-polarized calculation.
Magnetic moment: 0.000000

Convergence criteria:
  Maximum total energy change: 0.0005 eV / electron
  Maximum integral of absolute density change: 0.0001 electrons
  Maximum integral of absolute eigenstate change: 4e-08 eV^2
  Maximum change in atomic force: 1e-06 eV / Ang
  Maximum number of iterations: 1000

Symmetries present (total): 1

  ( 1  0  0)
  ( 0  1  0)
  ( 0  0  1)

144 k-points: 6 x 6 x 4 Monkhorst-Pack grid
144 k-points in the irreducible part of the Brillouin zone
       k-points in crystal coordinates                weights
   0:    -0.41666667   -0.41666667   -0.37500000          1/144
   1:    -0.41666667   -0.41666667   -0.12500000          1/144
   2:    -0.41666667   -0.41666667    0.12500000          1/144
   3:    -0.41666667   -0.41666667    0.37500000          1/144
   4:    -0.41666667   -0.25000000   -0.37500000          1/144
   5:    -0.41666667   -0.25000000   -0.12500000          1/144
   6:    -0.41666667   -0.25000000    0.12500000          1/144
   7:    -0.41666667   -0.25000000    0.37500000          1/144
   8:    -0.41666667   -0.08333333   -0.37500000          1/144
   9:    -0.41666667   -0.08333333   -0.12500000          1/144
          ...
 143:     0.41666667    0.41666667    0.37500000          1/144

Wave functions: Plane wave expansion
  Cutoff energy: 600.000 eV
  Number of coefficients (min, max): 10068, 10125
  Pulay-stress correction: 0.000000 eV/Ang^3 (de/decut=0.000000)
  Using FFTW library
  ScaLapack parameters: grid=1x1, blocksize=None
  Wavefunction extrapolation:
    Improved wavefunction reuse through dual PAW basis

  Fermi-Dirac: width=0.0010 eV

Eigensolver
   Davidson(niter=2)

Densities:
  Coarse grid: 60*35*27 grid
  Fine grid: 120*70*54 grid
  Total Charge: 0.000000

Density mixing:
  Method: difference
  Backend: pulay
  Linear mixing parameter: 0.05
  Mixing with 5 old densities
  Damping of long wave oscillations: 50

Hamiltonian:
  XC and Coulomb potentials evaluated on a 120*70*54 grid
  Using the LDA Exchange-Correlation functional

Total number of cores used: 64
Parallelization over k-points: 16
Domain decomposition: 2 x 2 x 1

Number of atoms: 28
Number of atomic orbitals: 148
Number of bands in calculation: 112
Number of valence electrons: 180
Bands to converge: occupied

... initialized

Initializing position-dependent things.

Density initialized from atomic densities
Creating initial wave functions:
  112 bands from LCAO basis set

    /|         OP              |
   / |O            O        O  |
  /  |       O            O  P |
 *   |O    Mn      O           |
 |   |          OLi          O |
 |   .P-O--------------Mn------.
 |  /          Li    O  Mn  O /
 | /Li O           PO        /
 |/       Mn                /
 *Li-----------------------*

Positions:
   0 O     -1.360678   -2.541161   -1.202221    ( 0.0000,  0.0000,  0.0000)
   1 O     -3.121941    2.976855    1.167242    ( 0.0000,  0.0000,  0.0000)
   2 O      2.107533    0.508090    1.540712    ( 0.0000,  0.0000,  0.0000)
   3 O      3.869373   -0.072395   -0.828750    ( 0.0000,  0.0000,  0.0000)
   4 O      2.107821    2.976875    1.540792    ( 0.0000,  0.0000,  0.0000)
   5 O      3.869084   -2.541141   -0.828671    ( 0.0000,  0.0000,  0.0000)
   6 O     -1.360390   -0.072375   -1.202141    ( 0.0000,  0.0000,  0.0000)
   7 O     -3.122230    0.508109    1.167321    ( 0.0000,  0.0000,  0.0000)
   8 O     -4.413461   -1.306992   -0.794251    ( 0.0000,  0.0000,  0.0000)
   9 O     -0.069585    1.742707    1.575662    ( 0.0000,  0.0000,  0.0000)
  10 O      5.160604    1.742707    1.132822    ( 0.0000,  0.0000,  0.0000)
  11 O      0.816728   -1.306992   -1.237091    ( 0.0000,  0.0000,  0.0000)
  12 Mn    -2.570809   -1.307302    0.247161    ( 0.0000,  0.0000,  1.0000)
  13 Mn    -1.912021    1.743016   -2.122906    ( 0.0000,  0.0000, -1.0000)
  14 Mn     3.317952    1.743017    0.091411    ( 0.0000,  0.0000, -1.0000)
  15 Mn     2.659164   -1.307302    2.461478    ( 0.0000,  0.0000,  1.0000)
  16 P     -0.620664   -1.306816   -1.828465    ( 0.0000,  0.0000,  0.0000)
  17 P     -3.862097    1.742530    0.541238    ( 0.0000,  0.0000,  0.0000)
  18 P      1.367807    1.742530    2.167036    ( 0.0000,  0.0000,  0.0000)
  19 P      4.609240   -1.306816   -0.202666    ( 0.0000,  0.0000,  0.0000)
  20 O     -0.646437   -1.306845    1.374751    ( 0.0000,  0.0000,  0.0000)
  21 O     -3.836504    1.742559   -0.985565    ( 0.0000,  0.0000,  0.0000)
  22 O      1.393580    1.742559   -1.036179    ( 0.0000,  0.0000,  0.0000)
  23 O      4.583647   -1.306845    1.334136    ( 0.0000,  0.0000,  0.0000)
  24 Li    -4.856429   -2.832143   -2.200714    ( 0.0000,  0.0000,  0.0000)
  25 Li     0.373571   -2.832143    0.169286    ( 0.0000,  0.0000,  0.0000)
  26 Li    -4.856429    0.217857   -2.200714    ( 0.0000,  0.0000,  0.0000)
  27 Li     0.373571    0.217857    0.169286    ( 0.0000,  0.0000,  0.0000)

Unit cell:
           periodic     x           y           z      points  spacing
  1. axis:    yes   10.460000    0.000000    0.000000    60     0.1743
  2. axis:    yes    0.000000    6.100000    0.000000    35     0.1743
  3. axis:    yes    0.000000    0.000000    4.740000    27     0.1756

  Lengths:  10.460000   6.100000   4.740000
  Angles:   90.000000  90.000000  90.000000

Effective grid spacing dv^(1/3) = 0.1747

                     log10-error:           total        iterations:
           time      wfs    density  force  energy       poisson  magmom
iter:   1  18:21:23                       -231.913490             +0.0000
iter:   2  18:21:43  -0.55  -0.94         -231.737219             +0.0056
iter:   3  18:22:04  -0.72  -0.98         -220.574626             +0.0071
iter:   4  18:22:25  -0.95  -1.20         -218.848221             +0.0023
iter:   5  18:22:45  -1.95  -1.36         -221.807365             +0.0015
iter:   6  18:23:06  -2.02  -1.46         -220.544442             -0.0376
iter:   7  18:23:27  -1.88  -1.65         -225.082469             +0.3491
iter:   8  18:23:48  -2.37  -1.73         -225.197004             -0.6702
iter:   9  18:24:08  -2.69  -1.84         -226.491152             -0.7804
iter:  10  18:24:29  -2.31  -1.81         -227.129704             -0.2751
iter:  11  18:24:50  -2.56  -1.81         -227.622938             -0.0787
iter:  12  18:25:11  -2.47  -1.77         -226.927049             -0.0148
iter:  13  18:25:31  -1.57  -1.83         -226.495857             -0.0151
iter:  14  18:25:52  -2.71  -2.23         -226.450243             -0.0044
iter:  15  18:26:13  -1.89  -2.25         -226.379615             -0.0189
iter:  16  18:26:33  -2.23  -2.39         -226.289403             -0.0037
iter:  17  18:26:54  -3.53  -2.49         -226.244584             -0.0020
iter:  18  18:27:15  -2.78  -2.66         -226.257099             -0.0006
iter:  19  18:27:35  -3.52  -2.76         -226.227869             -0.0006
iter:  20  18:27:56  -4.57  -2.95         -226.228181             -0.0002
iter:  21  18:28:17  -4.74  -2.99         -226.228426             +0.0001
iter:  22  18:28:38  -3.93  -3.12         -226.227944             +0.0000
iter:  23  18:28:58  -4.25  -3.20         -226.226982             +0.0000
iter:  24  18:29:19  -5.69  -3.25         -226.226515             +0.0000
iter:  25  18:29:40  -4.21  -3.31         -226.226588             -0.0000
iter:  26  18:30:00  -5.01  -3.57         -226.225946             +0.0000
iter:  27  18:30:21  -5.91  -3.83         -226.225930             +0.0000
iter:  28  18:30:42  -6.28  -3.89         -226.225891             +0.0000
iter:  29  18:31:02  -6.74  -4.03         -226.225883             +0.0000
iter:  30  18:31:23  -6.88  -4.07         -226.225877             +0.0000
iter:  31  18:31:43  -7.19  -4.11         -226.225876             +0.0000
iter:  32  18:32:04  -6.92  -4.16         -226.225875             -0.0000
iter:  33  18:32:25  -7.01  -4.18         -226.225873             +0.0000
iter:  34  18:32:45  -7.38  -4.23         -226.225875             -0.0000
iter:  35  18:33:06  -6.57  -4.25         -226.225873             +0.0000
iter:  36  18:33:32  -7.53  -4.74         -226.225871             +0.0000
iter:  37  18:33:58  -7.99  -4.90    -3.09-226.225870             -0.0000
iter:  38  18:34:24  -7.65  -4.98    -2.61-226.225868             -0.0000
iter:  39  18:34:49  -7.88  -5.30    -3.04-226.225868             -0.0000
iter:  40  18:35:15  -9.16  -5.55    -3.50-226.225868             -0.0000
iter:  41  18:35:41  -8.60  -5.61    -3.35-226.225868             -0.0000
iter:  42  18:36:07  -9.38  -5.72    -3.65-226.225868             -0.0000
iter:  43  18:36:33 -10.08  -5.76    -4.15-226.225868             -0.0000
iter:  44  18:36:59  -9.60  -5.78    -3.89-226.225868             -0.0000
iter:  45  18:37:24 -10.16  -5.86    -3.73-226.225868             -0.0000
iter:  46  18:37:50 -10.56  -6.03    -3.95-226.225868             -0.0000
iter:  47  18:38:16  -9.87  -6.18    -3.89-226.225868             -0.0000
iter:  48  18:38:42 -10.44  -6.48    -4.05-226.225868             -0.0000
iter:  49  18:39:08 -10.97  -6.78    -4.96-226.225868             -0.0000
iter:  50  18:39:33 -11.94  -6.80    -5.13-226.225868             -0.0000
iter:  51  18:39:59 -11.37  -6.84    -4.36-226.225868             -0.0000
iter:  52  18:40:25 -12.57  -7.11    -5.06-226.225868             -0.0000
iter:  53  18:40:51 -12.60  -7.17    -5.10-226.225868             +0.0000
iter:  54  18:41:17 -12.05  -7.23    -4.85-226.225868             +0.0000
iter:  55  18:41:43 -12.59  -7.31    -5.03-226.225868             +0.0000
iter:  56  18:42:09 -12.65  -7.39    -5.13-226.225868             +0.0000
iter:  57  18:42:34 -12.92  -7.60    -5.15-226.225868             +0.0000
iter:  58  18:43:00 -13.86  -7.89    -5.88-226.225868             +0.0000
iter:  59  18:43:26 -13.74  -8.07    -5.63-226.225868             +0.0000
iter:  60  18:43:52 -14.86  -8.53    -6.43-226.225868             +0.0000

Converged after 60 iterations.

Dipole moment: (10.671998, 1.411037, -6.258014) |e|*Ang

Total magnetic moment: (0.000000, 0.000000, 0.000000)
Local magnetic moments:
   0 O  ( 0.000000,  0.000000, -0.000502)
   1 O  ( 0.000000,  0.000000,  0.000460)
   2 O  ( 0.000000,  0.000000,  0.000539)
   3 O  ( 0.000000,  0.000000, -0.000543)
   4 O  ( 0.000000,  0.000000,  0.000520)
   5 O  ( 0.000000,  0.000000, -0.000523)
   6 O  ( 0.000000,  0.000000, -0.000522)
   7 O  ( 0.000000,  0.000000,  0.000480)
   8 O  ( 0.000000,  0.000000,  0.028698)
   9 O  ( 0.000000,  0.000000, -0.028837)
  10 O  ( 0.000000,  0.000000, -0.028680)
  11 O  ( 0.000000,  0.000000,  0.028695)
  12 Mn ( 0.000000,  0.000000,  4.448106)
  13 Mn ( 0.000000,  0.000000, -4.448593)
  14 Mn ( 0.000000,  0.000000, -4.448120)
  15 Mn ( 0.000000,  0.000000,  4.448257)
  16 P  ( 0.000000,  0.000000,  0.001583)
  17 P  ( 0.000000,  0.000000, -0.001461)
  18 P  ( 0.000000,  0.000000, -0.001559)
  19 P  ( 0.000000,  0.000000,  0.001543)
  20 O  ( 0.000000,  0.000000,  0.025308)
  21 O  ( 0.000000,  0.000000, -0.025083)
  22 O  ( 0.000000,  0.000000, -0.025301)
  23 O  ( 0.000000,  0.000000,  0.025308)
  24 Li ( 0.000000,  0.000000,  0.000011)
  25 Li ( 0.000000,  0.000000,  0.000000)
  26 Li ( 0.000000,  0.000000,  0.000011)
  27 Li ( 0.000000,  0.000000,  0.000000)

Energy contributions relative to reference atoms: (reference = -196157.275402)

Kinetic:       +218.095362
Potential:     -195.821382
External:        +0.000000
XC:            -250.539171
Entropy (-ST):   -0.000000
Local:           +2.039324
Free energy:   -226.225868
Extrapolated:  -226.225868

Spin contamination: 9.560239 electrons
Showing only first 2 kpts
                      Up                     Down
 Kpt  Band  Eigenvalues  Occupancy  Eigenvalues  Occupancy
  0    88      5.11012    1.00000      5.10120    1.00000
  0    89      5.13478    1.00000      5.13053    1.00000
  0    90      7.28702    0.00000      7.28919    0.00000
  0    91      7.30506    0.00000      7.30669    0.00000

  1    88      5.13588    1.00000      5.12660    1.00000
  1    89      5.16524    1.00000      5.16095    1.00000
  1    90      7.22967    0.00000      7.23195    0.00000
  1    91      7.24255    0.00000      7.24396    0.00000

Fermi level: 6.47696

Gap: 1.971 eV
Transition (v -> c):
  (s=0, k=74, n=89, [0.08, -0.42, 0.12]) -> (s=0, k=57, n=90, [-0.08, -0.08, -0.12])
Writing to born-0.01-21z+.gpw (mode='all')