User:   madkru@g046.nifl.fysik.dtu.dk
Date:   Wed Mar 17 16:38:15 2021
Arch:   x86_64
Pid:    34217
Python: 3.7.4
gpaw:   /home/niflheim/madkru/venv_folder/gpaw/gpaw (d0d1ca1c71)
_gpaw:  /home/niflheim/madkru/venv_folder/gpaw/build/lib.linux-x86_64-sandybridge-3.7/
        _gpaw.cpython-37m-x86_64-linux-gnu.so (4fd39e8b1e)
ase:    /home/niflheim/madkru/venv_folder/ase/ase (version 3.21.0b1-7e6c206a91)
numpy:  /home/niflheim/madkru/venv_folder/lib/python3.7/site-packages/numpy (version 1.19.4)
scipy:  /home/niflheim/madkru/venv_folder/lib/python3.7/site-packages/scipy (version 1.5.4)
units:  Angstrom and eV
cores: 32
OMP_NUM_THREADS: 1

Input parameters:
  convergence: {forces: 1e-06}
  kpts: [6 6 4]
  mode: {ecut: 600.0,
         gammacentered: False,
         name: pw}
  occupations: {fixmagmom: False,
                name: fermi-dirac,
                width: 0.001}
  symmetry: {point_group: False}

System changes: positions, numbers, cell, pbc, initial_charges, initial_magmoms

Initialize ...

O-setup:
  name: Oxygen
  id: 9b9d51c344dea68c822856295a461509
  Z: 8.0
  valence: 6
  core: 2
  charge: 0.0
  file: /home/modules/software/GPAW-setups/0.9.20000/O.LDA.gz
  compensation charges: gauss, rc=0.21, lmax=2
  cutoffs: 1.17(filt), 0.83(core),
  valence states:
                energy  radius
    2s(2.00)   -23.752   0.688
    2p(4.00)    -9.195   0.598
    *s           3.459   0.688
    *p          18.016   0.598
    *d           0.000   0.619

  Using partial waves for O as LCAO basis

Mn-setup:
  name: Manganese
  id: 0d715a8018be061a6e9ea6f2d364ac92
  Z: 25.0
  valence: 15
  core: 10
  charge: 0.0
  file: /home/modules/software/GPAW-setups/0.9.20000/Mn.LDA.gz
  compensation charges: gauss, rc=0.38, lmax=2
  cutoffs: 2.14(filt), 0.86(core),
  valence states:
                energy  radius
    3s(2.00)   -85.387   1.275
    4s(2.00)    -5.282   1.275
    3p(6.00)   -54.493   1.281
    4p(0.00)    -1.471   1.281
    3d(5.00)    -7.009   1.138
    *d          20.203   1.138

[...]

P-setup:
  name: Phosphorus
  id: a5561c299094968922a179ab894d2e2d
  Z: 15.0
  valence: 5
  core: 10
  charge: 0.0
  file: /home/modules/software/GPAW-setups/0.9.20000/P.LDA.gz
  compensation charges: gauss, rc=0.30, lmax=2
  cutoffs: 1.69(filt), 1.81(core),
  valence states:
                energy  radius
    3s(2.00)   -14.015   0.953
    3p(3.00)    -5.596   0.953
    *s          13.197   0.953
    *p          21.615   0.953
    *d           0.000   0.953

[...]

Li-setup:
  name: Lithium
  id: b73562207f97a71b6967473b66fe8b65
  Z: 3.0
  valence: 1
  core: 2
  charge: 0.0
  file: /home/modules/software/GPAW-setups/0.9.20000/Li.LDA.gz
  compensation charges: gauss, rc=0.33, lmax=2
  cutoffs: 1.91(filt), 2.55(core),
  valence states:
                energy  radius
    2s(1.00)    -2.874   1.058
    2p(0.00)    -1.126   1.058
    *s          24.338   1.058

  Using partial waves for Li as LCAO basis

Reference energy: -196157.275402

Spin-polarized calculation.
Magnetic moment: 0.000000

Convergence criteria:
  Maximum total energy change: 0.0005 eV / electron
  Maximum integral of absolute density change: 0.0001 electrons
  Maximum integral of absolute eigenstate change: 4e-08 eV^2
  Maximum change in atomic force: 1e-06 eV / Ang
  Maximum number of iterations: 333

Symmetries present (total): 1

  ( 1  0  0)
  ( 0  1  0)
  ( 0  0  1)

144 k-points: 6 x 6 x 4 Monkhorst-Pack grid
72 k-points in the irreducible part of the Brillouin zone
       k-points in crystal coordinates                weights
   0:     0.08333333   -0.41666667   -0.37500000          2/144
   1:     0.08333333   -0.41666667   -0.12500000          2/144
   2:     0.08333333   -0.41666667    0.12500000          2/144
   3:     0.08333333   -0.41666667    0.37500000          2/144
   4:     0.08333333   -0.25000000   -0.37500000          2/144
   5:     0.08333333   -0.25000000   -0.12500000          2/144
   6:     0.08333333   -0.25000000    0.12500000          2/144
   7:     0.08333333   -0.25000000    0.37500000          2/144
   8:     0.08333333   -0.08333333   -0.37500000          2/144
   9:     0.08333333   -0.08333333   -0.12500000          2/144
          ...
  71:     0.41666667    0.41666667    0.37500000          2/144

Wave functions: Plane wave expansion
  Cutoff energy: 600.000 eV
  Number of coefficients (min, max): 10068, 10125
  Pulay-stress correction: 0.000000 eV/Ang^3 (de/decut=0.000000)
  Using FFTW library
  ScaLapack parameters: grid=1x1, blocksize=None
  Wavefunction extrapolation:
    Improved wavefunction reuse through dual PAW basis

  Fermi-Dirac: width=0.0010 eV

Eigensolver
   Davidson(niter=2, smin=None, normalize=True)

Densities:
  Coarse grid: 60*35*27 grid
  Fine grid: 120*70*54 grid
  Total Charge: 0.000000

Density mixing:
  Method: difference
  Backend: pulay
  Linear mixing parameter: 0.05
  Mixing with 5 old densities
  Damping of long wave oscillations: 50

Hamiltonian:
  XC and Coulomb potentials evaluated on a 120*70*54 grid
  Using the LDA Exchange-Correlation functional

Total number of cores used: 32
Parallelization over k-points: 32

Number of atoms: 28
Number of atomic orbitals: 148
Number of bands in calculation: 112
Number of valence electrons: 180
Bands to converge: occupied

... initialized

Initializing position-dependent things.

Density initialized from atomic densities
Creating initial wave functions:
  112 bands from LCAO basis set

    /|             P  O        |
   / |   O      O            Li|
  /  |            Li Mn      O |
 *   |P O   O           Mn Li  |
 |   | O        Li       O     |
 |   .--Mn----------O---O-P----.
 | O/      On                 /
 | /            O      O     /
 |/       O  P              /

Positions:
   0 O      3.495751    0.290982    0.998493    ( 0.0000,  0.0000,  0.0000)
   1 O      1.734488    5.808998    3.367956    ( 0.0000,  0.0000,  0.0000)
   2 O      6.963961    3.340232    3.741427    ( 0.0000,  0.0000,  0.0000)
   3 O      8.725801    2.759748    1.371964    ( 0.0000,  0.0000,  0.0000)
   4 O      6.964249    5.809018    3.741507    ( 0.0000,  0.0000,  0.0000)
   5 O      8.725512    0.291002    1.372044    ( 0.0000,  0.0000,  0.0000)
   6 O      3.496039    2.759768    0.998573    ( 0.0000,  0.0000,  0.0000)
   7 O      1.734199    3.340252    3.368036    ( 0.0000,  0.0000,  0.0000)
   8 O      0.442968    1.525150    1.406463    ( 0.0000,  0.0000,  0.0000)
   9 O      4.786844    4.574849    3.776377    ( 0.0000,  0.0000,  0.0000)
  10 O     10.017032    4.574850    3.333537    ( 0.0000,  0.0000,  0.0000)
  11 O      5.673156    1.525151    0.963623    ( 0.0000,  0.0000,  0.0000)
  12 Mn     2.285619    1.524841    2.447875    ( 0.0000,  0.0000,  1.0000)
  13 Mn     2.944407    4.575159    0.077808    ( 0.0000,  0.0000, -1.0000)
  14 Mn     8.174381    4.575159    2.292125    ( 0.0000,  0.0000, -1.0000)
  15 Mn     7.515593    1.524841    4.662192    ( 0.0000,  0.0000,  1.0000)
  16 P      4.235765    1.525327    0.372250    ( 0.0000,  0.0000,  0.0000)
  17 P      0.994332    4.574673    2.741952    ( 0.0000,  0.0000,  0.0000)
  18 P      6.224235    4.574673    4.367750    ( 0.0000,  0.0000,  0.0000)
  19 P      9.465668    1.525327    1.998048    ( 0.0000,  0.0000,  0.0000)
  20 O      4.209991    1.525298    3.575465    ( 0.0000,  0.0000,  0.0000)
  21 O      1.019924    4.574702    1.205150    ( 0.0000,  0.0000,  0.0000)
  22 O      6.250009    4.574702    1.164535    ( 0.0000,  0.0000,  0.0000)
  23 O      9.440076    1.525298    3.534850    ( 0.0000,  0.0000,  0.0000)
  24 Li    -0.000000    0.000000   -0.000000    ( 0.0000,  0.0000,  0.0000)
  25 Li     5.230000   -0.000000    2.370000    ( 0.0000,  0.0000,  0.0000)
  26 Li    -0.000000    3.050000   -0.000000    ( 0.0000,  0.0000,  0.0000)
  27 Li     5.230000    3.050000    2.370000    ( 0.0000,  0.0000,  0.0000)

Unit cell:
           periodic     x           y           z      points  spacing
  1. axis:    yes   10.460000    0.000000    0.000000    60     0.1743
  2. axis:    yes    0.000000    6.100000    0.000000    35     0.1743
  3. axis:    yes    0.000000    0.000000    4.740000    27     0.1756

  Lengths:  10.460000   6.100000   4.740000
  Angles:   90.000000  90.000000  90.000000

Effective grid spacing dv^(1/3) = 0.1747

                     log10-error:           total        iterations:
           time      wfs    density  force  energy       poisson  magmom
iter:   1  16:40:10                       -231.920290             +0.0000
iter:   2  16:40:35  -0.55  -0.94         -231.730926             -0.0000
iter:   3  16:41:01  -0.72  -0.98         -220.584096             -0.0000
iter:   4  16:41:26  -0.96  -1.20         -218.865044             -0.0000
iter:   5  16:41:52  -1.96  -1.36         -220.565717             -0.0000
iter:   6  16:42:18  -1.73  -1.56         -218.259027             -0.0000
iter:   7  16:42:43  -2.30  -1.78         -217.753327             -0.0000
iter:   8  16:43:09  -2.96  -1.90         -218.275231             -0.0000
iter:   9  16:43:34  -3.58  -1.96         -218.071757             -0.0000
iter:  10  16:44:00  -2.65  -1.98         -217.944833             -0.0000
iter:  11  16:44:25  -2.69  -1.93         -218.624236             +0.0000
iter:  12  16:44:51  -2.22  -2.08         -219.607419             -0.0000
iter:  13  16:45:17  -2.36  -1.89         -220.724184             -0.0000
iter:  14  16:45:42  -2.63  -1.92         -222.118381             -0.0000
iter:  15  16:46:08  -2.55  -1.88         -221.858846             -0.0000
iter:  16  16:46:33  -2.78  -1.85         -222.421657             -0.0000
iter:  17  16:46:59  -2.40  -1.84         -222.324103             +0.0000
iter:  18  16:47:24  -2.21  -1.88         -222.707251             +0.0000
iter:  19  16:47:50  -3.06  -1.91         -222.867470             +0.0000
iter:  20  16:48:16  -3.21  -1.99         -222.340037             +0.0000
iter:  21  16:48:41  -2.99  -1.98         -224.101860             +0.0000
iter:  22  16:49:07  -2.56  -1.90         -221.754459             +0.0000
iter:  23  16:49:32  -2.92  -1.98         -221.564485             +0.0000
iter:  24  16:49:58  -3.03  -1.99         -221.662095             +0.0000
iter:  25  16:50:23  -2.90  -2.10         -222.042444             +0.0000
iter:  26  16:50:49  -3.15  -2.11         -221.538429             +0.0000
iter:  27  16:51:14  -3.53  -2.07         -221.528989             +0.0000
iter:  28  16:51:40  -3.37  -2.13         -221.529225             -0.0000
iter:  29  16:52:05  -3.56  -2.20         -221.511035             +0.0000
iter:  30  16:52:31  -3.87  -2.34         -221.489006             -0.0000
iter:  31  16:52:57  -3.82  -2.39         -221.462618             -0.0000
iter:  32  16:53:22  -2.82  -2.45         -221.468643             -0.0000
iter:  33  16:53:48  -3.90  -2.49         -221.426968             +0.0001
iter:  34  16:54:13  -3.19  -2.66         -221.690686             -0.0060
iter:  35  16:54:39  -3.27  -2.49         -221.404169             +0.0007
iter:  36  16:55:04  -4.60  -2.60         -221.413680             +0.0003
iter:  37  16:55:30  -5.18  -2.63         -221.410155             +0.0002
[...]
iter:  52  17:01:53  -4.31  -2.79         -221.383553             +0.0000
iter:  53  17:02:18  -3.96  -2.82         -221.421944             +0.0000
iter:  54  17:02:44  -4.05  -2.70         -221.369205             +0.0000
iter:  55  17:03:09  -4.05  -2.90         -221.348028             -0.0000
iter:  56  17:03:35  -3.74  -2.85         -221.399576             +0.0000
iter:  57  17:04:00  -4.05  -2.82         -221.432659             +0.0000
iter:  58  17:04:26  -4.61  -2.82         -221.394430             -0.0000
iter:  59  17:04:51  -4.41  -2.88         -221.373978             -0.0000
iter:  60  17:05:17  -4.55  -2.94         -221.402976             -0.0000
[...]
iter: 130  17:38:06 -10.68  -6.59    -4.27-226.049966             -0.0000
iter: 131  17:38:40 -11.02  -6.71    -4.36-226.049966             -0.0000
iter: 132  17:39:13 -12.40  -6.87    -5.20-226.049966             -0.0000
iter: 133  17:39:47 -11.67  -6.92    -4.76-226.049966             -0.0000
iter: 134  17:40:20 -12.09  -7.09    -4.87-226.049966             -0.0000
iter: 135  17:40:54 -12.20  -7.07    -4.90-226.049966             -0.0000
iter: 136  17:41:27 -12.42  -7.16    -5.09-226.049966             -0.0000
iter: 137  17:42:01 -12.81  -7.22    -5.27-226.049966             -0.0000
iter: 138  17:42:35 -13.20  -7.28    -5.41-226.049966             -0.0000
iter: 139  17:43:08 -13.29  -7.32    -5.49-226.049966             -0.0000
iter: 140  17:43:42 -13.76  -7.38    -5.55-226.049966             -0.0000
iter: 141  17:44:15 -13.80  -7.45    -5.65-226.049966             -0.0000
iter: 142  17:44:49 -12.40  -7.54    -5.26-226.049966             -0.0000
iter: 143  17:45:22 -13.58  -7.98    -5.71-226.049966             -0.0000
iter: 144  17:45:56 -14.18  -8.30    -6.07-226.049966             -0.0000

Converged after 144 iterations.

Dipole moment: (-0.000000, 0.000000, 0.000000) |e|*Ang

Total magnetic moment: (0.000000, 0.000000, -0.000000)
Local magnetic moments:
   0 O  ( 0.000000,  0.000000,  0.057766)
   1 O  ( 0.000000,  0.000000,  0.057766)
   2 O  ( 0.000000,  0.000000, -0.057760)
   3 O  ( 0.000000,  0.000000, -0.057759)
   4 O  ( 0.000000,  0.000000, -0.057766)
   5 O  ( 0.000000,  0.000000, -0.057766)
   6 O  ( 0.000000,  0.000000,  0.057760)
   7 O  ( 0.000000,  0.000000,  0.057760)
   8 O  ( 0.000000,  0.000000,  0.023047)
   9 O  ( 0.000000,  0.000000,  0.023049)
  10 O  ( 0.000000,  0.000000, -0.023047)
  11 O  ( 0.000000,  0.000000, -0.023049)
  12 Mn ( 0.000000,  0.000000,  4.485798)
  13 Mn ( 0.000000,  0.000000,  4.485884)
  14 Mn ( 0.000000,  0.000000, -4.485798)
  15 Mn ( 0.000000,  0.000000, -4.485884)
  16 P  ( 0.000000,  0.000000,  0.011250)
  17 P  ( 0.000000,  0.000000,  0.011261)
  18 P  ( 0.000000,  0.000000, -0.011250)
  19 P  ( 0.000000,  0.000000, -0.011261)
  20 O  ( 0.000000,  0.000000,  0.026040)
  21 O  ( 0.000000,  0.000000,  0.026036)
  22 O  ( 0.000000,  0.000000, -0.026040)
  23 O  ( 0.000000,  0.000000, -0.026036)
  24 Li ( 0.000000,  0.000000, -0.000000)
  25 Li ( 0.000000,  0.000000, -0.000000)
  26 Li ( 0.000000,  0.000000, -0.000000)
  27 Li ( 0.000000,  0.000000, -0.000000)

Energy contributions relative to reference atoms: (reference = -196157.275402)

Kinetic:       +220.282139
Potential:     -197.400959
External:        +0.000000
XC:            -250.963140
Entropy (-ST):   -0.000000
Local:           +2.031994
Free energy:   -226.049966
Extrapolated:  -226.049966

Spin contamination: 9.879322 electrons
Showing only first 2 kpts
                      Up                     Down
 Kpt  Band  Eigenvalues  Occupancy  Eigenvalues  Occupancy
  0    88      5.16482    0.01389      5.16482    0.01389
  0    89      5.20141    0.01389      5.20141    0.01389
  0    90      7.24253    0.00000      7.24253    0.00000
  0    91      7.26940    0.00000      7.26940    0.00000

  1    88      5.13124    0.01389      5.13124    0.01389
  1    89      5.20510    0.01389      5.20510    0.01389
  1    90      7.18545    0.00000      7.18545    0.00000
  1    91      7.21747    0.00000      7.21747    0.00000

Fermi level: 5.98909

Gap: 1.683 eV
Transition (v -> c):
  (s=1, k=14, n=89, [0.08, 0.08, 0.12]) -> (s=1, k=9, n=90, [0.08, -0.08, -0.12])
Writing to LiMnPO4.gpw (mode='')

Forces in eV/Ang:
  0 O     0.08030    0.07952   -0.01760
  1 O    -0.08038   -0.07955   -0.01749
  2 O    -0.08024    0.07949    0.01751
  3 O     0.08032   -0.07953    0.01740
  4 O    -0.08030   -0.07952    0.01760
  5 O     0.08038    0.07955    0.01749
  6 O     0.08024   -0.07949   -0.01751
  7 O    -0.08032    0.07953   -0.01740
  8 O     0.01275    0.00000    0.00178
  9 O    -0.01274   -0.00000    0.00220
 10 O    -0.01275   -0.00000   -0.00178
 11 O     0.01274    0.00000   -0.00220
 12 Mn   -0.05265    0.00006    0.04780
 13 Mn    0.05282   -0.00006    0.04813
 14 Mn    0.05265   -0.00006   -0.04780
 15 Mn   -0.05282    0.00006   -0.04813
 16 P    -0.00684    0.00003   -0.00032
 17 P     0.00667   -0.00003   -0.00011
 18 P     0.00684   -0.00003    0.00032
 19 P    -0.00667    0.00003    0.00010
 20 O     0.01149   -0.00003   -0.01758
 21 O    -0.01160    0.00003   -0.01743
 22 O    -0.01149    0.00003    0.01758
 23 O     0.01160   -0.00003    0.01743
 24 Li   -0.00000    0.00000   -0.00000
 25 Li    0.00000    0.00000    0.00000
 26 Li   -0.00000   -0.00000   -0.00000
 27 Li    0.00000   -0.00000    0.00000

System changes: positions

[...]

Density initialized from wave functions
    /|             P  O        |
   / |   O      O            Li|
  /  |            Li Mn      O |
 *   |P O   O           Mn Li  |
 |   | O        Li       O     |
 |   .--Mn----------O---O-P----.
 | O/      On                 /
 | /            O      O     /
 |/       O  P              /

[...]

Gap: 1.666 eV
Transition (v -> c):
  (s=0, k=10, n=89, [0.08, -0.08, 0.12]) -> (s=0, k=9, n=90, [0.08, -0.08, -0.12])

[...]

Density initialized from wave functions
    /|             P  O        |
   / |   O      O            Li|
  /  |            LiOMn      O |
 *   |P O   O           Mn Li  |
 |   | O        Li       O     |
 |   .--Mn----------O---O-P----.
 | O/      On                 /
 | /            O      O     /
 |/       O  P              /

[...]

Density initialized from wave functions
    /|             P  O        |
   / |   O      O            Li|
  /  |            LiOMn      O |
 *   |P O   O           Mn Li  |
 |   | O        Li       O     |
 |   .--Mn----------O---O-P----.
 | O/      On                 /
 | /            O      O     /
 |/       O  P              /

[...]

Density initialized from wave functions
    /|             P  O        |
   / |   O      O            Li|
  /  |            Li Mn      O |
 *   |P O   O           Mn Li  |
 |   | O        Li       O     |
 |   .--Mn----------O----OP----.
 | O/      On                 /
 | /            O      O     /
 |/       O  P              /

[...]

Density initialized from wave functions
    /|             P  O        |
   / |   O      O            Li|
  /  |            Li Mn      O |
 *   |P O   O           Mn Li  |
 |   | O        Li       O     |
 |   .--Mn----------O----OP----.
 | O/      On                 /
 | /            O      O     /
 |/       O  P              /

[...]

Density initialized from wave functions
    /|             P  O        |
   / |   O      O            Li|
  /  |            Li Mn      O |
 *   |P O   O           Mn Li  |
 |   | O        Li       O     |
 |   .--Mn----------O---O-P----.
 | O/      MO                 /
 | /            O      O     /
 |/       O  P              /

[...]

Density initialized from wave functions
    /|             P  O        |
   / |   O      O            Li|
  /  |            Li Mn      O |
 *   |P O   O           Mn Li  |
 |   | O        Li       O     |
 |   .--Mn----------O---O-P----.
 | O/      MO                 /
 | /            O      O     /
 |/       O  P              /

[...]

Density initialized from wave functions
    /|             P  O        |
   / |   O      O            Li|
  /  |            Li Mn      O |
 *   |PO    O           Mn Li  |
 |   | O        Li       O     |
 |   .--Mn----------O---O-P----.
 | O/      On                 /
 | /            O      O     /
 |/       O  P              /

[...]

Converged after 32 iterations.

Dipole moment: (-0.000598, -0.002185, -0.000379) |e|*Ang

Total magnetic moment: (0.000000, 0.000000, -0.000000)
Local magnetic moments:
   0 O  ( 0.000000,  0.000000,  0.057869)
   1 O  ( 0.000000,  0.000000,  0.057817)
   2 O  ( 0.000000,  0.000000, -0.057720)
   3 O  ( 0.000000,  0.000000, -0.057781)
   4 O  ( 0.000000,  0.000000, -0.057727)
   5 O  ( 0.000000,  0.000000, -0.057796)
   6 O  ( 0.000000,  0.000000,  0.057691)
   7 O  ( 0.000000,  0.000000,  0.057449)
   8 O  ( 0.000000,  0.000000,  0.023080)
   9 O  ( 0.000000,  0.000000,  0.023056)
  10 O  ( 0.000000,  0.000000, -0.023182)
  11 O  ( 0.000000,  0.000000, -0.023005)
  12 Mn ( 0.000000,  0.000000,  4.486153)
  13 Mn ( 0.000000,  0.000000,  4.486106)
  14 Mn ( 0.000000,  0.000000, -4.485791)
  15 Mn ( 0.000000,  0.000000, -4.485903)
  16 P  ( 0.000000,  0.000000,  0.011238)
  17 P  ( 0.000000,  0.000000,  0.011171)
  18 P  ( 0.000000,  0.000000, -0.011278)
  19 P  ( 0.000000,  0.000000, -0.011272)
  20 O  ( 0.000000,  0.000000,  0.026004)
  21 O  ( 0.000000,  0.000000,  0.026068)
  22 O  ( 0.000000,  0.000000, -0.025990)
  23 O  ( 0.000000,  0.000000, -0.026058)
  24 Li ( 0.000000,  0.000000, -0.000005)
  25 Li ( 0.000000,  0.000000, -0.000001)
  26 Li ( 0.000000,  0.000000,  0.000004)
  27 Li ( 0.000000,  0.000000, -0.000002)

Energy contributions relative to reference atoms: (reference = -196157.275402)

Kinetic:       +220.538799
Potential:     -197.596109
External:        +0.000000
XC:            -251.024430
Entropy (-ST):   -0.000000
Local:           +2.031653
Free energy:   -226.050088
Extrapolated:  -226.050088

Spin contamination: 9.879444 electrons
Showing only first 2 kpts
                      Up                     Down
 Kpt  Band  Eigenvalues  Occupancy  Eigenvalues  Occupancy
  0    88      5.15354    0.01389      5.16818    0.01389
  0    89      5.19492    0.01389      5.20475    0.01389
  0    90      7.24547    0.00000      7.23464    0.00000
  0    91      7.27249    0.00000      7.26245    0.00000

  1    88      5.12214    0.01389      5.13465    0.01389
  1    89      5.19720    0.01389      5.20844    0.01389
  1    90      7.18839    0.00000      7.17746    0.00000
  1    91      7.22053    0.00000      7.20975    0.00000

Fermi level: 5.98909

Gap: 1.672 eV
Transition (v -> c):
  (s=1, k=14, n=89, [0.08, 0.08, 0.12]) -> (s=1, k=13, n=90, [0.08, 0.08, -0.12])

Forces in eV/Ang:
  0 O     0.08022    0.08059   -0.01803
  1 O    -0.06401   -0.08097   -0.01644
  2 O    -0.08482    0.08027    0.01844
  3 O     0.07887   -0.08083    0.01647
  4 O    -0.08545   -0.08047    0.01869
  5 O     0.07896    0.08110    0.01579
  6 O     0.07467   -0.07468   -0.01708
  7 O     0.05598   -0.04387    0.03580
  8 O     0.01677   -0.00239    0.00105
  9 O    -0.02251   -0.00096    0.00092
 10 O    -0.04439    0.03019   -0.00853
 11 O     0.00695    0.00065   -0.00290
 12 Mn   -0.06278    0.00354    0.04972
 13 Mn    0.04315    0.00336    0.04754
 14 Mn    0.06317    0.00044   -0.04467
 15 Mn   -0.04665   -0.00002   -0.04839
 16 P     0.00019   -0.00512    0.00249
 17 P    -0.10078    0.07874   -0.03977
 18 P     0.01727   -0.00009    0.00142
 19 P    -0.00723    0.00058    0.00388
 20 O     0.00648    0.00342   -0.01939
 21 O     0.00021    0.00695   -0.02429
 22 O    -0.01538   -0.00002    0.01670
 23 O     0.00915   -0.00101    0.01648
 24 Li   -0.00222   -0.00229   -0.00108
 25 Li    0.00207   -0.00042   -0.00029
 26 Li   -0.00118    0.00298   -0.00433
 27 Li    0.00345    0.00033   -0.00021

System changes: positions

Initializing position-dependent things.

Density initialized from wave functions
    /|             P  O        |
   / |   O      O            Li|
  /  |            Li Mn      O |
 *   |P O   O           Mn Li  |
 |   | O        Li       O     |
 |   .--Mn----------O---O-P----.
 | O/      On                 /
 | /            O      O     /
 |/       O  P              /

Positions:
   0 O      3.495751    0.290982    0.998493    ( 0.0000,  0.0000,  0.0000)
   1 O      1.734488    5.808998    3.367956    ( 0.0000,  0.0000,  0.0000)
   2 O      6.963961    3.340232    3.741427    ( 0.0000,  0.0000,  0.0000)
   3 O      8.725801    2.759748    1.371964    ( 0.0000,  0.0000,  0.0000)
   4 O      6.964249    5.809018    3.741507    ( 0.0000,  0.0000,  0.0000)
   5 O      8.725512    0.291002    1.372044    ( 0.0000,  0.0000,  0.0000)
   6 O      3.496039    2.759768    0.998573    ( 0.0000,  0.0000,  0.0000)
   7 O      1.744199    3.340252    3.368036    ( 0.0000,  0.0000,  0.0000)
   8 O      0.442968    1.525150    1.406463    ( 0.0000,  0.0000,  0.0000)
   9 O      4.786844    4.574849    3.776377    ( 0.0000,  0.0000,  0.0000)
  10 O     10.017032    4.574850    3.333537    ( 0.0000,  0.0000,  0.0000)
  11 O      5.673156    1.525151    0.963623    ( 0.0000,  0.0000,  0.0000)
  12 Mn     2.285619    1.524841    2.447875    ( 0.0000,  0.0000,  1.0000)
  13 Mn     2.944407    4.575159    0.077808    ( 0.0000,  0.0000, -1.0000)
  14 Mn     8.174381    4.575159    2.292125    ( 0.0000,  0.0000, -1.0000)
  15 Mn     7.515593    1.524841    4.662192    ( 0.0000,  0.0000,  1.0000)
  16 P      4.235765    1.525327    0.372250    ( 0.0000,  0.0000,  0.0000)
  17 P      0.994332    4.574673    2.741952    ( 0.0000,  0.0000,  0.0000)
  18 P      6.224235    4.574673    4.367750    ( 0.0000,  0.0000,  0.0000)
  19 P      9.465668    1.525327    1.998048    ( 0.0000,  0.0000,  0.0000)
  20 O      4.209991    1.525298    3.575465    ( 0.0000,  0.0000,  0.0000)
  21 O      1.019924    4.574702    1.205150    ( 0.0000,  0.0000,  0.0000)
  22 O      6.250009    4.574702    1.164535    ( 0.0000,  0.0000,  0.0000)
  23 O      9.440076    1.525298    3.534850    ( 0.0000,  0.0000,  0.0000)
  24 Li    -0.000000    0.000000   -0.000000    ( 0.0000,  0.0000,  0.0000)
  25 Li     5.230000   -0.000000    2.370000    ( 0.0000,  0.0000,  0.0000)
  26 Li    -0.000000    3.050000   -0.000000    ( 0.0000,  0.0000,  0.0000)
  27 Li     5.230000    3.050000    2.370000    ( 0.0000,  0.0000,  0.0000)

Unit cell:
           periodic     x           y           z      points  spacing
  1. axis:    yes   10.460000    0.000000    0.000000    60     0.1743
  2. axis:    yes    0.000000    6.100000    0.000000    35     0.1743
  3. axis:    yes    0.000000    0.000000    4.740000    27     0.1756

  Lengths:  10.460000   6.100000   4.740000
  Angles:   90.000000  90.000000  90.000000

Effective grid spacing dv^(1/3) = 0.1747

                     log10-error:           total        iterations:
           time      wfs    density  force  energy       poisson  magmom
iter:   1  08:20:09  -3.30                -226.051143             -0.0015
iter:   2  08:20:34  -4.70  -3.30         -226.050644             -0.0005
iter:   3  08:21:00  -3.53  -3.33         -226.049427             +0.0001
iter:   4  08:21:25  -5.07  -3.44         -226.048703             -0.0001
iter:   5  08:21:50  -6.28  -3.64         -226.048690             -0.0001
iter:   6  08:22:16  -5.27  -3.67         -226.048507             -0.0000
iter:   7  08:22:41  -6.07  -4.08         -226.048502             -0.0000
iter:   8  08:23:06  -5.76  -4.17         -226.048529             +0.0000
iter:   9  08:23:32  -6.06  -4.07         -226.048489             -0.0000
iter:  10  08:23:57  -6.00  -4.50         -226.048490             -0.0000
iter:  11  08:24:22  -6.87  -4.58         -226.048487             -0.0000
iter:  12  08:24:55  -7.57  -4.74         -226.048487             -0.0000
iter:  13  08:25:29  -8.17  -5.09    -2.92-226.048486             -0.0000
iter:  14  08:26:02  -8.17  -5.22    -2.85-226.048486             +0.0000
iter:  15  08:26:36  -9.01  -5.38    -2.77-226.048486             -0.0000
iter:  16  08:27:09  -9.19  -5.51    -3.15-226.048486             -0.0000
iter:  17  08:27:43  -9.32  -5.58    -2.97-226.048486             -0.0000
iter:  18  08:28:16  -9.79  -5.68    -3.39-226.048486             -0.0000
iter:  19  08:28:50 -10.23  -5.75    -2.92-226.048486             -0.0000
iter:  20  08:29:23 -10.45  -5.77    -2.96-226.048486             +0.0000
iter:  21  08:29:57  -9.82  -5.78    -3.14-226.048486             +0.0000
iter:  22  08:30:30  -9.74  -5.87    -3.24-226.048486             +0.0000
iter:  23  08:31:04  -9.94  -6.04    -3.18-226.048486             +0.0000
iter:  24  08:31:37 -11.03  -6.53    -3.86-226.048486             +0.0000
iter:  25  08:32:11 -11.68  -6.57    -3.79-226.048486             +0.0000