User:   madkru@a104.nifl.fysik.dtu.dk
Date:   Sun Jun 26 02:44:11 2022
Arch:   x86_64
Pid:    4971
Python: 3.8.6
gpaw:   /home/niflheim/madkru/new_venv/gpaw/gpaw (1f0dfc9eae)
_gpaw:  /home/niflheim/madkru/new_venv/gpaw/build/lib.linux-x86_64-skylake-3.8/
        _gpaw.cpython-38-x86_64-linux-gnu.so (c1e45bfab3)
ase:    /home/niflheim/madkru/new_venv/ase/ase (version 3.23.0b1-ca38c75a67)
numpy:  /home/modules/software/SciPy-bundle/2020.11-foss-2020b/lib/python3.8/site-packages/numpy (version 1.19.4)
scipy:  /home/modules/software/SciPy-bundle/2020.11-foss-2020b/lib/python3.8/site-packages/scipy (version 1.5.4)
units:  Angstrom and eV
cores: 40
OpenMP: False
OMP_NUM_THREADS: 1

Input parameters:
  convergence: {density: 1e-09}
  experimental: {magmoms: [[0. 0. 0.]
 [0. 0. 0.]
 [0. 0. 0.]
 ...
 [0. 0. 0.]
 [0. 0. 0.]
 [0. 0. 0.]],
                 soc: True}
  kpts: [4 4 6]
  maxiter: 5000
  mixer: {backend: pulay,
          beta: 0.05,
          method: difference,
          nmaxold: 3,
          weight: 100}
  mode: {ecut: 600.0,
         gammacentered: False,
         name: pw}
  occupations: {fixmagmom: False,
                name: fermi-dirac,
                width: 0.001}
  symmetry: off

System changes: positions, numbers, cell, pbc, initial_charges, initial_magmoms

Initialize ...

O-setup:
  name: Oxygen
  id: 9b9d51c344dea68c822856295a461509
  Z: 8.0
  valence: 6
  core: 2
  charge: 0.0
  file: /home/modules/software/GPAW-setups/0.9.20000/O.LDA.gz
  compensation charges: gauss, rc=0.21, lmax=2
  cutoffs: 1.17(filt), 0.83(core),
  valence states:
                energy  radius
    2s(2.00)   -23.752   0.688
    2p(4.00)    -9.195   0.598
    *s           3.459   0.688
    *p          18.016   0.598
    *d           0.000   0.619

  Using partial waves for O as LCAO basis

Mn-setup:
  name: Manganese
  id: 0d715a8018be061a6e9ea6f2d364ac92
  Z: 25.0
  valence: 15
  core: 10
  charge: 0.0
  file: /home/modules/software/GPAW-setups/0.9.20000/Mn.LDA.gz
  compensation charges: gauss, rc=0.38, lmax=2
  cutoffs: 2.14(filt), 0.86(core),
  valence states:
                energy  radius
    3s(2.00)   -85.387   1.275
    4s(2.00)    -5.282   1.275
    3p(6.00)   -54.493   1.281
    4p(0.00)    -1.471   1.281
    3d(5.00)    -7.009   1.138
    *d          20.203   1.138

[...]

P-setup:
  name: Phosphorus
  id: a5561c299094968922a179ab894d2e2d
  Z: 15.0
  valence: 5
  core: 10
  charge: 0.0
  file: /home/modules/software/GPAW-setups/0.9.20000/P.LDA.gz
  compensation charges: gauss, rc=0.30, lmax=2
  cutoffs: 1.69(filt), 1.81(core),
  valence states:
                energy  radius
    3s(2.00)   -14.015   0.953
    3p(3.00)    -5.596   0.953
    *s          13.197   0.953
    *p          21.615   0.953
    *d           0.000   0.953

[...]

Li-setup:
  name: Lithium
  id: b73562207f97a71b6967473b66fe8b65
  Z: 3.0
  valence: 1
  core: 2
  charge: 0.0
  file: /home/modules/software/GPAW-setups/0.9.20000/Li.LDA.gz
  compensation charges: gauss, rc=0.33, lmax=2
  cutoffs: 1.91(filt), 2.55(core),
  valence states:
                energy  radius
    2s(1.00)    -2.874   1.058
    2p(0.00)    -1.126   1.058
    *s          24.338   1.058

  Using partial waves for Li as LCAO basis

Reference energy: -196157.275402

Non-collinear calculation.
Magnetic moment: (0.000000, 0.000000, 0.000000)

Convergence criteria:
  Maximum total energy change: 0.0005 eV / electron
  Maximum integral of absolute density change: 1e-09 electrons
  Maximum integral of absolute eigenstate change: 4e-08 eV^2
  Maximum number of iterations: 5000

Symmetries present (total): 1

  ( 1  0  0)
  ( 0  1  0)
  ( 0  0  1)

96 k-points: 4 x 4 x 6 Monkhorst-Pack grid
96 k-points in the irreducible part of the Brillouin zone
       k-points in crystal coordinates                weights
   0:    -0.37500000   -0.37500000   -0.41666667          1/96
   1:    -0.37500000   -0.37500000   -0.25000000          1/96
   2:    -0.37500000   -0.37500000   -0.08333333          1/96
   3:    -0.37500000   -0.37500000    0.08333333          1/96
   4:    -0.37500000   -0.37500000    0.25000000          1/96
   5:    -0.37500000   -0.37500000    0.41666667          1/96
   6:    -0.37500000   -0.12500000   -0.41666667          1/96
   7:    -0.37500000   -0.12500000   -0.25000000          1/96
   8:    -0.37500000   -0.12500000   -0.08333333          1/96
   9:    -0.37500000   -0.12500000    0.08333333          1/96
          ...
  95:     0.37500000    0.37500000    0.41666667          1/96

Wave functions: Plane wave expansion
  Cutoff energy: 600.000 eV
  Number of coefficients (min, max): 10065, 10119
  Pulay-stress correction: 0.000000 eV/Ang^3 (de/decut=0.000000)
  Using FFTW library
  ScaLapack parameters: grid=1x1, blocksize=None
  Wavefunction extrapolation:
    Improved wavefunction reuse through dual PAW basis

Occupation numbers: Fermi-Dirac: width=0.0010 eV

Eigensolver
   Davidson(niter=2)

Densities:
  Coarse grid: 60*35*27 grid
  Fine grid: 120*70*54 grid
  Total Charge: 0.000000

Density mixing:
  Method: difference
  Backend: pulay
  Linear mixing parameter: 0.05
  Mixing with 3 old densities
  Damping of long wave oscillations: 100

Hamiltonian:
  XC and Coulomb potentials evaluated on a 120*70*54 grid
  Using the LDA Exchange-Correlation functional
  External potential:
    <gpaw.external.NoExternalPotential object at 0x2ad0798a2580>

Total number of cores used: 40
Parallelization over k-points: 40

Number of atoms: 28
Number of atomic orbitals: 148
Number of bands in calculation: 224
Number of valence electrons: 180
Bands to converge: occupied

... initialized

Initializing position-dependent things.

Density initialized from atomic densities
Creating initial wave functions:
  148 bands from LCAO basis set
  76 bands from random numbers

    /|             P  O        |
   / |   O      O              |
  /  |              OMn      O |
 *   |P O   O           Mn     |
 |   | O        Li       O     |
 |   Li-Mn----------O----OP----.
 | O/      On Li              /
 | /i           O      O     /
 |/       O  P              /

Positions:
   0 O      3.485457    0.291791    0.972192    ( 0.0000,  0.0000,  0.0000)
   1 O      1.742297    5.807885    3.341681    ( 0.0000,  0.0000,  0.0000)
   2 O      6.960977    3.339159    3.716528    ( 0.0000,  0.0000,  0.0000)
   3 O      8.733270    2.760247    1.345932    ( 0.0000,  0.0000,  0.0000)
   4 O      6.961185    5.810261    3.716644    ( 0.0000,  0.0000, -3.0000)
   5 O      8.733065    0.290338    1.346042    ( 0.0000,  0.0000,  3.0000)
   6 O      3.485841    2.759141    0.972246    ( 0.0000,  0.0000,  3.0000)
   7 O      1.741903    3.341188    3.341734    ( 0.0000,  0.0000, -3.0000)
   8 O      0.445684    1.525102    1.387849    ( 0.0000,  0.0000,  0.0000)
   9 O      4.788758    4.574898    3.760340    ( 0.0000,  0.0000,  0.0000)
  10 O     10.020229    4.574813    3.315676    ( 0.0000,  0.0000,  0.0000)
  11 O      5.667422    1.525195    0.945603    ( 0.0000,  0.0000,  0.0000)
  12 Mn     2.282916    1.524750    2.477521    ( 0.0000,  0.0000,  0.0000)
  13 Mn     2.945528    4.575253    0.105986    ( 5.0000,  0.0000,  0.0000)
  14 Mn     8.175419    4.575071    2.320920    (-5.0000,  0.0000,  0.0000)
  15 Mn     7.515207    1.524933    4.693733    (-5.0000,  0.0000,  0.0000)
  16 P      4.229986    1.525388    0.364550    ( 5.0000,  0.0000,  0.0000)
  17 P      0.997456    4.574618    2.733896    ( 0.0000,  0.0000,  0.0000)
  18 P      6.227305    4.574730    4.361143    ( 0.0000,  0.0000,  0.0000)
  19 P      9.468905    1.525273    1.990545    ( 0.0000,  0.0000,  0.0000)
  20 O      4.213440    1.525298    3.556884    ( 0.0000,  0.0000,  0.0000)
  21 O      1.013334    4.574710    1.186399    ( 0.0000,  0.0000,  0.0000)
  22 O      6.259698    4.574692    1.147182    ( 0.0000,  0.0000,  0.0000)
  23 O      9.434848    1.525307    3.516419    ( 0.0000,  0.0000,  0.0000)
  24 Li     0.000246   -0.020453    0.064761    ( 0.0000,  0.0000,  0.0000)
  25 Li     5.224669    0.019860    2.436706    ( 0.0000,  0.0000,  0.0000)
  26 Li     0.000385    3.070097    0.064401    ( 0.0000,  0.0000,  0.0000)
  27 Li     5.224570    3.030459    2.436383    ( 0.0000,  0.0000,  0.0000)

Unit cell:
           periodic     x           y           z      points  spacing
  1. axis:    yes   10.460000    0.000000    0.000000    60     0.1743
  2. axis:    yes    0.000000    6.100000    0.000000    35     0.1743
  3. axis:    yes    0.000000    0.000000    4.740000    27     0.1756

  Lengths:  10.460000   6.100000   4.740000
  Angles:   90.000000  90.000000  90.000000

Effective grid spacing dv^(1/3) = 0.1747

                     log10-error:    total        iterations:
           time      wfs    density  energy       poisson
iter:   1  02:46:05                -258.503893            -1.0,+0.0,+0.0
iter:   2  02:46:39  -0.42  -0.89  -266.796373            +0.8,-0.0,+0.2
iter:   3  02:47:14  -0.87  -0.94  -254.424015            +0.0,-0.0,+0.0
iter:   4  02:47:48  -0.61  -0.97  -236.181540            -0.0,+0.0,+0.0
iter:   5  02:48:23  -0.42  -1.09  -232.198396            -0.0,+0.0,+0.0
iter:   6  02:48:58  -1.60  -1.25  -222.205351            -0.0,+0.0,+0.0
iter:   7  02:49:32  -2.53  -1.35  -222.140155            -0.1,+0.0,+0.0
iter:   8  02:50:07  -2.37  -1.35  -221.934992            -0.1,-0.0,+0.0
iter:   9  02:50:41  -2.46  -1.38  -225.102605            +0.0,-0.0,-0.0
iter:  10  02:51:16  -1.84  -1.33  -224.445388            -0.1,-0.0,-0.0
iter:  11  02:51:51  -2.63  -1.33  -221.514237            -0.0,-0.0,-0.0
iter:  12  02:52:25  -3.27  -1.49  -221.502441            +0.0,-0.0,-0.1
iter:  13  02:53:00  -2.12  -1.50  -222.800160            +0.7,-0.0,-0.2
iter:  14  02:53:35  -2.46  -1.51  -222.109503            +0.6,-0.1,-0.2
iter:  15  02:54:09  -2.64  -1.59  -222.578752            +0.9,-0.1,-0.4
iter:  16  02:54:44  -3.21  -1.72  -222.571815            +1.6,-0.1,-0.4
iter:  17  02:55:19  -2.57  -1.74  -223.823404            +2.2,-0.2,-0.7
iter:  18  02:55:53  -2.38  -1.88  -225.212368            +2.0,-0.2,-0.8
iter:  19  02:56:28  -3.13  -2.10  -225.612360            +1.6,-0.3,-1.0
iter:  20  02:57:03  -2.66  -2.10  -226.414209            +0.1,-0.4,-1.1
iter:  21  02:57:37  -2.77  -2.06  -226.441279            +0.0,-0.4,-1.2
iter:  22  02:58:12  -2.27  -2.14  -226.730388            +0.0,-0.4,-1.1
iter:  23  02:58:47  -3.33  -2.25  -226.475859            +0.0,-0.4,-1.1
iter:  24  02:59:21  -3.80  -2.33  -226.432085            +0.0,-0.4,-1.1
iter:  25  02:59:56  -3.52  -2.41  -226.349723            +0.0,-0.4,-1.1
iter:  26  03:00:31  -2.50  -2.43  -226.237546            +0.0,-0.4,-1.1
iter:  27  03:01:05  -3.44  -2.63  -226.239269            +0.0,-0.4,-1.1
iter:  28  03:01:40  -2.98  -2.65  -226.262582            +0.0,-0.4,-1.1
iter:  29  03:02:15  -3.74  -2.85  -226.234803            +0.0,-0.4,-1.1
iter:  30  03:02:49  -3.70  -3.04  -226.230653            +0.0,-0.4,-1.1
iter:  31  03:03:24  -4.83  -3.13  -226.229920            +0.0,-0.4,-1.1
iter:  32  03:03:58  -4.96  -3.18  -226.229915            +0.0,-0.4,-1.1
iter:  33  03:04:33  -4.81  -3.24  -226.229281            +0.0,-0.4,-1.1
iter:  34  03:05:08  -4.58  -3.35  -226.229883            +0.0,-0.4,-1.1
iter:  35  03:05:42  -5.83  -3.47  -226.229402            +0.0,-0.4,-1.1
iter:  36  03:06:17  -4.84  -3.52  -226.228412            +0.0,-0.4,-1.0
iter:  37  03:06:51  -5.46  -3.62  -226.228393            +0.0,-0.4,-1.0
iter:  38  03:07:26  -5.85  -3.65  -226.228393            +0.0,-0.4,-1.0
iter:  39  03:08:01  -6.50  -3.76  -226.228406            +0.0,-0.4,-1.0
iter:  40  03:08:35  -5.67  -3.83  -226.228402            +0.0,-0.4,-1.0
iter:  41  03:09:10  -6.11  -4.07  -226.228426            +0.0,-0.4,-1.0
iter:  42  03:09:45  -6.55  -4.17  -226.228389            +0.0,-0.4,-1.0
iter:  43  03:10:19  -6.74  -4.27  -226.228394            +0.0,-0.4,-1.0
iter:  44  03:10:54  -5.96  -4.32  -226.228440            +0.0,-0.4,-0.9
iter:  45  03:11:29  -5.98  -4.66  -226.228379            +0.0,-0.3,-1.0
iter:  46  03:12:03  -5.85  -4.67  -226.228455            +0.0,-0.4,-0.9
iter:  47  03:12:38  -5.01  -4.69  -226.228618            +0.0,-0.4,-0.6
iter:  48  03:13:12  -5.30  -4.68  -226.228669            +0.0,-0.4,-0.5
iter:  49  03:13:47  -6.22  -4.76  -226.228690            +0.0,-0.4,-0.5
iter:  50  03:14:21  -6.60  -4.81  -226.228741            +0.0,-0.4,-0.5
iter:  51  03:14:56  -6.90  -4.91  -226.228746            +0.0,-0.4,-0.5
iter:  52  03:15:30  -5.97  -4.97  -226.228783            +0.0,-0.4,-0.4
iter:  53  03:16:05  -5.73  -5.10  -226.228817            +0.0,-0.4,-0.3
iter:  54  03:16:40  -5.75  -5.24  -226.228836            +0.0,-0.3,-0.2
iter:  55  03:17:14  -5.78  -5.36  -226.228854            +0.0,-0.2,-0.2
iter:  56  03:17:49  -6.16  -5.32  -226.228863            +0.0,-0.2,-0.2
iter:  57  03:18:23  -6.78  -5.26  -226.228896            +0.0,-0.1,-0.2
iter:  58  03:18:58  -7.39  -5.41  -226.228901            +0.0,-0.2,-0.2
iter:  59  03:19:32  -6.80  -5.33  -226.228906            +0.0,-0.1,-0.2
iter:  60  03:20:07  -6.02  -5.37  -226.228915            +0.0,-0.1,-0.1
[...]
iter: 286  05:29:41 -11.14  -8.40  -226.228998            +0.0,+0.0,-0.0
iter: 287  05:30:15 -10.09  -8.45  -226.228996            +0.0,+0.0,-0.0
iter: 288  05:30:49  -9.46  -8.58  -226.228996            +0.0,+0.0,-0.0
iter: 289  05:31:23  -9.49  -8.33  -226.228996            +0.0,+0.0,-0.0
iter: 290  05:31:57 -10.36  -8.14  -226.228997            +0.0,+0.0,-0.0
iter: 291  05:32:31 -10.41  -8.11  -226.228998            +0.0,+0.0,-0.0
iter: 292  05:33:06 -10.35  -8.34  -226.228995            +0.0,+0.0,-0.0
iter: 293  05:33:40 -11.19  -8.25  -226.228992            +0.0,+0.0,-0.0
iter: 294  05:34:14  -9.67  -8.09  -226.229001            +0.0,+0.0,-0.0
iter: 295  05:34:48 -10.85  -8.38  -226.228998            +0.0,+0.0,-0.0
iter: 296  05:35:23 -11.15  -8.60  -226.228997            +0.0,+0.0,-0.0
iter: 297  05:35:57 -11.41  -8.79  -226.228997            +0.0,+0.0,-0.0
iter: 298  05:36:31 -11.02  -8.84  -226.228998            +0.0,+0.0,-0.0
iter: 299  05:37:05 -10.98  -8.77  -226.228997            +0.0,+0.0,-0.0
iter: 300  05:37:39 -10.76  -9.17  -226.228998            +0.0,+0.0,-0.0

Converged after 300 iterations.

Dipole moment: (0.201477, 0.008820, -2.038688) |e|*Ang

Total magnetic moment: (0.000531, 0.000693, -0.003488)
Local magnetic moments:
   0 O  ( 0.003005, -0.000072,  0.000223)
   1 O  (-0.003064,  0.000073,  0.000131)
   2 O  ( 0.002095, -0.000040, -0.000204)
   3 O  (-0.002046,  0.000062, -0.000262)
   4 O  ( 0.002107,  0.000074, -0.000201)
   5 O  (-0.002058, -0.000085, -0.000260)
   6 O  ( 0.003031,  0.000124,  0.000226)
   7 O  (-0.003090, -0.000118,  0.000133)
   8 O  (-0.028721, -0.000197, -0.000301)
   9 O  ( 0.028606,  0.000198,  0.000499)
  10 O  ( 0.028818,  0.000159,  0.000248)
  11 O  (-0.028820, -0.000156, -0.000507)
  12 Mn (-4.445048, -0.030803, -0.048304)
  13 Mn ( 4.445271,  0.031067,  0.077037)
  14 Mn ( 4.445165,  0.024419,  0.041968)
  15 Mn (-4.444756, -0.024057, -0.073760)
  16 P  (-0.000651,  0.000005,  0.000147)
  17 P  ( 0.000619, -0.000004,  0.000150)
  18 P  ( 0.002357,  0.000021, -0.000102)
  19 P  (-0.002362, -0.000020, -0.000175)
  20 O  (-0.026043, -0.000179, -0.000425)
  21 O  ( 0.026069,  0.000181,  0.000315)
  22 O  ( 0.024623,  0.000136,  0.000406)
  23 O  (-0.024499, -0.000134, -0.000225)
  24 Li (-0.000067,  0.000002, -0.000001)
  25 Li ( 0.000071, -0.000001,  0.000001)
  26 Li (-0.000067, -0.000003, -0.000001)
  27 Li ( 0.000071,  0.000003,  0.000001)

Energy contributions relative to reference atoms: (reference = -196157.275402)

Kinetic:       +217.895625
Potential:     -195.676283
External:        +0.000000
XC:            -250.487613
Entropy (-ST):   -0.000000
Local:           +2.039274
Free energy:   -226.228998
Extrapolated:  -226.228998

Showing only first 2 kpts
 Kpt  Band  Eigenvalues  Occupancy
  0    88     -2.04510    1.00000
  0    89     -2.03005    1.00000
  0    90     -1.95155    1.00000
  0    91     -1.93910    1.00000

  1    88     -2.17244    1.00000
  1    89     -2.16062    1.00000
  1    90     -2.11656    1.00000
  1    91     -2.08990    1.00000

Fermi level: 6.16653

Gap: 1.957 eV
Transition (v -> c):
  (s=0, k=45, n=179, [-0.12, 0.38, 0.08]) -> (s=0, k=33, n=180, [-0.12, -0.12, 0.08])

Forces in eV/Ang:
  0 O    -0.02867   -0.00278    0.14010
  1 O     0.03427    0.00345    0.14261
  2 O    -0.03063    0.00671    0.15920
  3 O     0.03428   -0.00695    0.15978
  4 O    -0.03065   -0.00681    0.15926
  5 O     0.03430    0.00706    0.15989
  6 O    -0.02859    0.00276    0.14011
  7 O     0.03418   -0.00345    0.14263
  8 O    -0.00325    0.00001    0.15013
  9 O     0.00931   -0.00000    0.14829
 10 O    -0.00021    0.00001    0.13367
 11 O     0.00641   -0.00001    0.13003
 12 Mn   -0.00523   -0.00005   -0.21390
 13 Mn    0.00772    0.00005   -0.21257
 14 Mn    0.00435    0.00003   -0.22389
 15 Mn   -0.00145   -0.00004   -0.22463
 16 P     0.02723    0.00004   -0.31296
 17 P    -0.02240   -0.00004   -0.31475
 18 P    -0.04655    0.00003   -0.35514
 19 P    -0.01975   -0.00003   -0.35386
 20 O     0.01653    0.00006    0.24462
 21 O    -0.01132   -0.00007    0.24551
 22 O     0.02980   -0.00003    0.24587
 23 O    -0.02217    0.00003    0.24680
 24 Li    0.00401   -0.00570   -0.13493
 25 Li    0.00222    0.00536   -0.13340
 26 Li    0.00400    0.00570   -0.13490
 27 Li    0.00221   -0.00534   -0.13341