User:   madkru@a104.nifl.fysik.dtu.dk
Date:   Sat Jun 25 02:22:01 2022
Arch:   x86_64
Pid:    4971
Python: 3.8.6
gpaw:   /home/niflheim/madkru/new_venv/gpaw/gpaw (1f0dfc9eae)
_gpaw:  /home/niflheim/madkru/new_venv/gpaw/build/lib.linux-x86_64-skylake-3.8/
        _gpaw.cpython-38-x86_64-linux-gnu.so (c1e45bfab3)
ase:    /home/niflheim/madkru/new_venv/ase/ase (version 3.23.0b1-ca38c75a67)
numpy:  /home/modules/software/SciPy-bundle/2020.11-foss-2020b/lib/python3.8/site-packages/numpy (version 1.19.4)
scipy:  /home/modules/software/SciPy-bundle/2020.11-foss-2020b/lib/python3.8/site-packages/scipy (version 1.5.4)
units:  Angstrom and eV
cores: 40
OpenMP: False
OMP_NUM_THREADS: 1

Input parameters:
  convergence: {density: 1e-09}
  experimental: {magmoms: [[0. 0. 0.]
 [0. 0. 0.]
 [0. 0. 0.]
 ...
 [0. 0. 0.]
 [0. 0. 0.]
 [0. 0. 0.]],
                 soc: True}
  kpts: [4 4 6]
  maxiter: 5000
  mixer: {backend: pulay,
          beta: 0.05,
          method: difference,
          nmaxold: 3,
          weight: 100}
  mode: {ecut: 600.0,
         gammacentered: False,
         name: pw}
  occupations: {fixmagmom: False,
                name: fermi-dirac,
                width: 0.001}
  symmetry: off

System changes: positions, numbers, cell, pbc, initial_charges, initial_magmoms

Initialize ...

O-setup:
  name: Oxygen
  id: 9b9d51c344dea68c822856295a461509
  Z: 8.0
  valence: 6
  core: 2
  charge: 0.0
  file: /home/modules/software/GPAW-setups/0.9.20000/O.LDA.gz
  compensation charges: gauss, rc=0.21, lmax=2
  cutoffs: 1.17(filt), 0.83(core),
  valence states:
                energy  radius
    2s(2.00)   -23.752   0.688
    2p(4.00)    -9.195   0.598
    *s           3.459   0.688
    *p          18.016   0.598
    *d           0.000   0.619

  Using partial waves for O as LCAO basis

Mn-setup:
  name: Manganese
  id: 0d715a8018be061a6e9ea6f2d364ac92
  Z: 25.0
  valence: 15
  core: 10
  charge: 0.0
  file: /home/modules/software/GPAW-setups/0.9.20000/Mn.LDA.gz
  compensation charges: gauss, rc=0.38, lmax=2
  cutoffs: 2.14(filt), 0.86(core),
  valence states:
                energy  radius
    3s(2.00)   -85.387   1.275
    4s(2.00)    -5.282   1.275
    3p(6.00)   -54.493   1.281
    4p(0.00)    -1.471   1.281
    3d(5.00)    -7.009   1.138
    *d          20.203   1.138

[...]

P-setup:
  name: Phosphorus
  id: a5561c299094968922a179ab894d2e2d
  Z: 15.0
  valence: 5
  core: 10
  charge: 0.0
  file: /home/modules/software/GPAW-setups/0.9.20000/P.LDA.gz
  compensation charges: gauss, rc=0.30, lmax=2
  cutoffs: 1.69(filt), 1.81(core),
  valence states:
                energy  radius
    3s(2.00)   -14.015   0.953
    3p(3.00)    -5.596   0.953
    *s          13.197   0.953
    *p          21.615   0.953
    *d           0.000   0.953

[...]

Li-setup:
  name: Lithium
  id: b73562207f97a71b6967473b66fe8b65
  Z: 3.0
  valence: 1
  core: 2
  charge: 0.0
  file: /home/modules/software/GPAW-setups/0.9.20000/Li.LDA.gz
  compensation charges: gauss, rc=0.33, lmax=2
  cutoffs: 1.91(filt), 2.55(core),
  valence states:
                energy  radius
    2s(1.00)    -2.874   1.058
    2p(0.00)    -1.126   1.058
    *s          24.338   1.058

  Using partial waves for Li as LCAO basis

Reference energy: -196157.275402

Non-collinear calculation.
Magnetic moment: (0.000000, 0.000000, 0.000000)

Convergence criteria:
  Maximum total energy change: 0.0005 eV / electron
  Maximum integral of absolute density change: 1e-09 electrons
  Maximum integral of absolute eigenstate change: 4e-08 eV^2
  Maximum number of iterations: 5000

Symmetries present (total): 1

  ( 1  0  0)
  ( 0  1  0)
  ( 0  0  1)

96 k-points: 4 x 4 x 6 Monkhorst-Pack grid
96 k-points in the irreducible part of the Brillouin zone
       k-points in crystal coordinates                weights
   0:    -0.37500000   -0.37500000   -0.41666667          1/96
   1:    -0.37500000   -0.37500000   -0.25000000          1/96
   2:    -0.37500000   -0.37500000   -0.08333333          1/96
   3:    -0.37500000   -0.37500000    0.08333333          1/96
   4:    -0.37500000   -0.37500000    0.25000000          1/96
   5:    -0.37500000   -0.37500000    0.41666667          1/96
   6:    -0.37500000   -0.12500000   -0.41666667          1/96
   7:    -0.37500000   -0.12500000   -0.25000000          1/96
   8:    -0.37500000   -0.12500000   -0.08333333          1/96
   9:    -0.37500000   -0.12500000    0.08333333          1/96
          ...
  95:     0.37500000    0.37500000    0.41666667          1/96

Wave functions: Plane wave expansion
  Cutoff energy: 600.000 eV
  Number of coefficients (min, max): 10065, 10119
  Pulay-stress correction: 0.000000 eV/Ang^3 (de/decut=0.000000)
  Using FFTW library
  ScaLapack parameters: grid=1x1, blocksize=None
  Wavefunction extrapolation:
    Improved wavefunction reuse through dual PAW basis

Occupation numbers: Fermi-Dirac: width=0.0010 eV

Eigensolver
   Davidson(niter=2)

Densities:
  Coarse grid: 60*35*27 grid
  Fine grid: 120*70*54 grid
  Total Charge: 0.000000

Density mixing:
  Method: difference
  Backend: pulay
  Linear mixing parameter: 0.05
  Mixing with 3 old densities
  Damping of long wave oscillations: 100

Hamiltonian:
  XC and Coulomb potentials evaluated on a 120*70*54 grid
  Using the LDA Exchange-Correlation functional
  External potential:
    <gpaw.external.NoExternalPotential object at 0x2ad07222c760>

Total number of cores used: 40
Parallelization over k-points: 40

Number of atoms: 28
Number of atomic orbitals: 148
Number of bands in calculation: 224
Number of valence electrons: 180
Bands to converge: occupied

... initialized

Initializing position-dependent things.

Density initialized from atomic densities
Creating initial wave functions:
  148 bands from LCAO basis set
  76 bands from random numbers

    /|             P  O        |
   / |   O      O              |
  /  |              OMn      O |
 *   |P O   O           Mn     |
 |   | O        Li       O     |
 |   Li-Mn----------O----OP----.
 | O/      On Li              /
 | /i           O      O     /
 |/       O  P              /

Positions:
   0 O      3.493692    0.291144    0.993233    ( 0.0000,  0.0000,  0.0000)
   1 O      1.736050    5.808776    3.362701    ( 0.0000,  0.0000,  0.0000)
   2 O      6.963364    3.340018    3.736447    ( 0.0000,  0.0000,  0.0000)
   3 O      8.727295    2.759848    1.366758    ( 0.0000,  0.0000,  0.0000)
   4 O      6.963636    5.809267    3.736534    ( 0.0000,  0.0000, -3.0000)
   5 O      8.727023    0.290869    1.366843    ( 0.0000,  0.0000,  3.0000)
   6 O      3.493999    2.759642    0.993308    ( 0.0000,  0.0000,  3.0000)
   7 O      1.735740    3.340439    3.362775    ( 0.0000,  0.0000, -3.0000)
   8 O      0.443511    1.525141    1.402741    ( 0.0000,  0.0000,  0.0000)
   9 O      4.787226    4.574859    3.773169    ( 0.0000,  0.0000,  0.0000)
  10 O     10.017672    4.574842    3.329964    ( 0.0000,  0.0000,  0.0000)
  11 O      5.672009    1.525159    0.960019    ( 0.0000,  0.0000,  0.0000)
  12 Mn     2.285079    1.524822    2.453804    ( 0.0000,  0.0000,  0.0000)
  13 Mn     2.944631    4.575178    0.083444    ( 5.0000,  0.0000,  0.0000)
  14 Mn     8.174588    4.575142    2.297884    (-5.0000,  0.0000,  0.0000)
  15 Mn     7.515516    1.524859    4.668500    (-5.0000,  0.0000,  0.0000)
  16 P      4.234609    1.525339    0.370710    ( 5.0000,  0.0000,  0.0000)
  17 P      0.994957    4.574662    2.740341    ( 0.0000,  0.0000,  0.0000)
  18 P      6.224849    4.574685    4.366429    ( 0.0000,  0.0000,  0.0000)
  19 P      9.466316    1.525316    1.996547    ( 0.0000,  0.0000,  0.0000)
  20 O      4.210681    1.525298    3.571749    ( 0.0000,  0.0000,  0.0000)
  21 O      1.018606    4.574704    1.201399    ( 0.0000,  0.0000,  0.0000)
  22 O      6.251946    4.574700    1.161064    ( 0.0000,  0.0000,  0.0000)
  23 O      9.439030    1.525300    3.531164    ( 0.0000,  0.0000,  0.0000)
  24 Li     0.000049   -0.004091    0.012952    ( 0.0000,  0.0000,  0.0000)
  25 Li     5.228934    0.003972    2.383341    ( 0.0000,  0.0000,  0.0000)
  26 Li     0.000077    3.054019    0.012880    ( 0.0000,  0.0000,  0.0000)
  27 Li     5.228914    3.046092    2.383277    ( 0.0000,  0.0000,  0.0000)

Unit cell:
           periodic     x           y           z      points  spacing
  1. axis:    yes   10.460000    0.000000    0.000000    60     0.1743
  2. axis:    yes    0.000000    6.100000    0.000000    35     0.1743
  3. axis:    yes    0.000000    0.000000    4.740000    27     0.1756

  Lengths:  10.460000   6.100000   4.740000
  Angles:   90.000000  90.000000  90.000000

Effective grid spacing dv^(1/3) = 0.1747

                     log10-error:    total        iterations:
           time      wfs    density  energy       poisson
iter:   1  02:24:00                -258.488234            -1.0,+0.0,+0.0
iter:   2  02:24:34  -0.42  -0.89  -266.749701            +0.8,-0.0,+0.2
iter:   3  02:25:09  -0.87  -0.94  -254.579273            +0.0,-0.0,+0.0
iter:   4  02:25:44  -0.61  -0.97  -236.141307            -0.0,+0.0,+0.0
iter:   5  02:26:18  -0.42  -1.09  -232.556411            -0.0,+0.0,+0.0
iter:   6  02:26:53  -1.60  -1.25  -222.191024            -0.0,+0.0,+0.0
iter:   7  02:27:27  -2.50  -1.35  -222.162606            -0.1,+0.0,+0.0
iter:   8  02:28:02  -2.46  -1.35  -221.966140            -0.0,-0.0,+0.0
iter:   9  02:28:37  -2.53  -1.38  -224.041599            -0.1,-0.0,-0.0
iter:  10  02:29:11  -2.30  -1.35  -222.356907            -0.2,-0.0,-0.1
iter:  11  02:29:46  -2.97  -1.42  -222.072170            -0.2,-0.0,-0.1
iter:  12  02:30:20  -2.61  -1.50  -222.988574            -0.3,-0.0,-0.1
iter:  13  02:30:55  -2.69  -1.57  -223.076614            -1.0,-0.1,-0.2
iter:  14  02:31:30  -2.58  -1.73  -224.765764            -0.6,-0.1,-0.3
iter:  15  02:32:04  -2.93  -1.75  -225.492953            -1.2,-0.1,-0.5
iter:  16  02:32:39  -2.56  -1.75  -226.634991            -0.5,-0.2,-0.3
iter:  17  02:33:13  -2.26  -1.74  -226.478053            -0.1,-0.2,-0.3
iter:  18  02:33:48  -2.71  -1.93  -226.422460            -0.0,-0.2,-0.3
iter:  19  02:34:22  -3.42  -2.19  -226.405793            -0.0,-0.2,-0.3
iter:  20  02:34:57  -2.87  -2.22  -226.380581            -0.0,-0.2,-0.3
iter:  21  02:35:31  -4.10  -2.33  -226.368627            -0.0,-0.2,-0.3
iter:  22  02:36:06  -2.80  -2.37  -226.308583            -0.0,-0.2,-0.3
iter:  23  02:36:41  -4.08  -2.64  -226.298910            -0.0,-0.2,-0.3
iter:  24  02:37:15  -3.88  -2.69  -226.288928            +0.0,-0.2,-0.3
iter:  25  02:37:50  -4.43  -2.79  -226.286621            +0.0,-0.2,-0.3
iter:  26  02:38:24  -4.39  -2.92  -226.285481            +0.0,-0.2,-0.3
iter:  27  02:38:59  -4.46  -3.05  -226.284588            +0.0,-0.2,-0.3
iter:  28  02:39:33  -5.66  -3.09  -226.283760            +0.0,-0.2,-0.3
iter:  29  02:40:08  -3.88  -3.12  -226.281476            +0.0,-0.2,-0.3
iter:  30  02:40:43  -5.38  -3.39  -226.280895            +0.0,-0.2,-0.3
iter:  31  02:41:17  -5.46  -3.43  -226.280643            +0.0,-0.2,-0.3
iter:  32  02:41:52  -4.98  -3.49  -226.281147            +0.0,-0.2,-0.3
iter:  33  02:42:26  -5.12  -3.48  -226.280629            +0.0,-0.2,-0.3
iter:  34  02:43:01  -6.00  -3.61  -226.280600            +0.0,-0.2,-0.3
iter:  35  02:43:35  -6.21  -3.64  -226.280659            +0.0,-0.2,-0.3
iter:  36  02:44:10  -6.51  -3.84  -226.280628            +0.0,-0.2,-0.3
iter:  37  02:44:44  -6.41  -3.99  -226.280621            +0.0,-0.2,-0.3
iter:  38  02:45:19  -7.28  -4.07  -226.280611            +0.0,-0.2,-0.3
iter:  39  02:45:53  -7.44  -4.07  -226.280601            +0.0,-0.2,-0.3
iter:  40  02:46:28  -6.95  -4.05  -226.280595            +0.0,-0.2,-0.3
iter:  41  02:47:02  -6.51  -4.09  -226.280598            +0.0,-0.1,-0.3
iter:  42  02:47:36  -6.59  -4.14  -226.280598            +0.0,-0.1,-0.3
iter:  43  02:48:11  -6.63  -4.28  -226.280597            +0.0,-0.1,-0.3
iter:  44  02:48:45  -6.38  -4.40  -226.280599            +0.0,-0.0,-0.2
iter:  45  02:49:19  -6.89  -4.51  -226.280601            +0.0,-0.0,-0.2
iter:  46  02:49:54  -6.15  -4.53  -226.280605            +0.0,-0.0,-0.2
iter:  47  02:50:28  -6.12  -4.58  -226.280609            +0.0,-0.0,-0.1
iter:  48  02:51:03  -6.56  -4.61  -226.280610            +0.0,-0.0,-0.1
iter:  49  02:51:37  -7.05  -4.68  -226.280610            +0.0,-0.0,-0.1
iter:  50  02:52:12  -6.80  -4.74  -226.280610            +0.0,-0.0,-0.1
iter:  51  02:52:46  -7.90  -4.88  -226.280610            +0.0,-0.0,-0.1
iter:  52  02:53:20  -8.20  -4.96  -226.280610            +0.0,-0.0,-0.1
iter:  53  02:53:55  -8.73  -4.99  -226.280610            +0.0,-0.0,-0.1
iter:  54  02:54:29  -8.04  -5.00  -226.280610            +0.0,-0.0,-0.1
iter:  55  02:55:04  -7.18  -5.03  -226.280612            +0.0,-0.0,-0.0
iter:  56  02:55:38  -6.59  -5.08  -226.280615            +0.0,-0.0,-0.0
iter:  57  02:56:12  -6.86  -5.14  -226.280616            +0.0,-0.0,-0.0
iter:  58  02:56:46  -7.66  -5.29  -226.280616            +0.0,-0.0,-0.0
iter:  59  02:57:21  -7.51  -5.35  -226.280615            +0.0,-0.0,-0.0
iter:  60  02:57:55  -7.47  -5.68  -226.280616            +0.0,-0.0,+0.0
[...]
iter: 244  04:42:40  -9.00  -8.01  -226.280619            +0.0,-0.0,-0.0
iter: 245  04:43:14  -8.89  -8.39  -226.280619            +0.0,-0.0,-0.0
iter: 246  04:43:48 -10.06  -7.98  -226.280619            +0.0,-0.0,-0.0
iter: 247  04:44:22 -10.07  -7.95  -226.280619            +0.0,-0.0,-0.0
iter: 248  04:44:56 -10.29  -8.55  -226.280619            +0.0,-0.0,-0.0
iter: 249  04:45:30  -9.73  -8.69  -226.280619            +0.0,-0.0,-0.0
iter: 250  04:46:05  -9.90  -8.77  -226.280619            +0.0,-0.0,-0.0
iter: 251  04:46:39 -10.34  -8.75  -226.280619            +0.0,-0.0,-0.0
iter: 252  04:47:13  -9.39  -8.88  -226.280619            +0.0,-0.0,-0.0
iter: 253  04:47:47  -9.62  -8.87  -226.280619            +0.0,-0.0,-0.0
iter: 254  04:48:21  -9.35  -8.44  -226.280619            +0.0,-0.0,-0.0
iter: 255  04:48:55 -10.49  -8.80  -226.280619            +0.0,-0.0,-0.0
iter: 256  04:49:29 -11.13  -8.82  -226.280619            +0.0,-0.0,-0.0
iter: 257  04:50:03 -10.85  -8.99  -226.280619            +0.0,-0.0,-0.0
iter: 258  04:50:38 -11.02  -9.13  -226.280619            +0.0,-0.0,-0.0

Converged after 258 iterations.

Dipole moment: (0.040304, 0.001795, -0.410538) |e|*Ang

Total magnetic moment: (0.000338, -0.001054, -0.000710)
Local magnetic moments:
   0 O  ( 0.001024, -0.000087,  0.000225)
   1 O  (-0.001049,  0.000077,  0.000182)
   2 O  (-0.000018, -0.000073, -0.000203)
   3 O  ( 0.000042,  0.000077, -0.000224)
   4 O  ( 0.000001,  0.000074, -0.000204)
   5 O  ( 0.000023, -0.000092, -0.000225)
   6 O  ( 0.001045,  0.000088,  0.000225)
   7 O  (-0.001070, -0.000089,  0.000181)
   8 O  (-0.028682,  0.000024, -0.000159)
   9 O  ( 0.028665, -0.000027,  0.000392)
  10 O  ( 0.028703, -0.000084,  0.000014)
  11 O  (-0.028711,  0.000079, -0.000260)
  12 Mn (-4.446145,  0.003474, -0.028492)
  13 Mn ( 4.446224, -0.003882,  0.059263)
  14 Mn ( 4.446411, -0.013163,  0.004560)
  15 Mn (-4.446145,  0.012622, -0.035953)
  16 P  (-0.001377,  0.000012,  0.000164)
  17 P  ( 0.001357, -0.000014,  0.000130)
  18 P  ( 0.001717,  0.000005, -0.000109)
  19 P  (-0.001707, -0.000007, -0.000182)
  20 O  (-0.025451,  0.000021, -0.000321)
  21 O  ( 0.025452, -0.000024,  0.000184)
  22 O  ( 0.025172, -0.000073,  0.000189)
  23 O  (-0.025138,  0.000070, -0.000038)
  24 Li (-0.000013,  0.000000, -0.000001)
  25 Li ( 0.000014,  0.000000,  0.000001)
  26 Li (-0.000013, -0.000001, -0.000001)
  27 Li ( 0.000014,  0.000001,  0.000001)

Energy contributions relative to reference atoms: (reference = -196157.275402)

Kinetic:       +217.178251
Potential:     -195.129917
External:        +0.000000
XC:            -250.370021
Entropy (-ST):   -0.000000
Local:           +2.041068
Free energy:   -226.280619
Extrapolated:  -226.280619

Showing only first 2 kpts
 Kpt  Band  Eigenvalues  Occupancy
  0    88     -2.03527    1.00000
  0    89     -2.03188    1.00000
  0    90     -1.94025    1.00000
  0    91     -1.93708    1.00000

  1    88     -2.15784    1.00000
  1    89     -2.15467    1.00000
  1    90     -2.10304    1.00000
  1    91     -2.09623    1.00000

Fermi level: 6.10212

Gap: 1.974 eV
Transition (v -> c):
  (s=0, k=45, n=179, [-0.12, 0.38, 0.08]) -> (s=0, k=33, n=180, [-0.12, -0.12, 0.08])

Forces in eV/Ang:
  0 O    -0.00603   -0.00108    0.02939
  1 O     0.00704    0.00126    0.02979
  2 O    -0.00568    0.00097    0.03042
  3 O     0.00675   -0.00098    0.03052
  4 O    -0.00571   -0.00097    0.03047
  5 O     0.00678    0.00099    0.03058
  6 O    -0.00604    0.00106    0.02943
  7 O     0.00705   -0.00125    0.02983
  8 O     0.00003    0.00001    0.02874
  9 O     0.00127   -0.00000    0.02868
 10 O    -0.00085   -0.00000    0.02800
 11 O     0.00190    0.00000    0.02710
 12 Mn   -0.00009   -0.00001   -0.04358
 13 Mn    0.00120    0.00001   -0.04321
 14 Mn    0.00006    0.00000   -0.04392
 15 Mn    0.00072   -0.00000   -0.04443
 16 P     0.00519    0.00001   -0.06598
 17 P    -0.00426   -0.00001   -0.06593
 18 P    -0.00933   -0.00000   -0.06720
 19 P    -0.00433    0.00000   -0.06726
 20 O     0.00436   -0.00001    0.04835
 21 O    -0.00350    0.00001    0.04875
 22 O     0.00507    0.00002    0.04906
 23 O    -0.00376   -0.00002    0.04904
 24 Li    0.00085   -0.00135   -0.02668
 25 Li    0.00024    0.00135   -0.02662
 26 Li    0.00084    0.00135   -0.02668
 27 Li    0.00024   -0.00134   -0.02662