User:   madkru@a104.nifl.fysik.dtu.dk
Date:   Fri Jun 24 16:20:35 2022
Arch:   x86_64
Pid:    4971
Python: 3.8.6
gpaw:   /home/niflheim/madkru/new_venv/gpaw/gpaw (1f0dfc9eae)
_gpaw:  /home/niflheim/madkru/new_venv/gpaw/build/lib.linux-x86_64-skylake-3.8/
        _gpaw.cpython-38-x86_64-linux-gnu.so (c1e45bfab3)
ase:    /home/niflheim/madkru/new_venv/ase/ase (version 3.23.0b1-ca38c75a67)
numpy:  /home/modules/software/SciPy-bundle/2020.11-foss-2020b/lib/python3.8/site-packages/numpy (version 1.19.4)
scipy:  /home/modules/software/SciPy-bundle/2020.11-foss-2020b/lib/python3.8/site-packages/scipy (version 1.5.4)
units:  Angstrom and eV
cores: 40
OpenMP: False
OMP_NUM_THREADS: 1

Input parameters:
  convergence: {density: 1e-09}
  experimental: {magmoms: [[0. 0. 0.]
 [0. 0. 0.]
 [0. 0. 0.]
 ...
 [0. 0. 0.]
 [0. 0. 0.]
 [0. 0. 0.]],
                 soc: True}
  kpts: [4 4 6]
  maxiter: 5000
  mixer: {backend: pulay,
          beta: 0.05,
          method: difference,
          nmaxold: 3,
          weight: 100}
  mode: {ecut: 600.0,
         gammacentered: False,
         name: pw}
  occupations: {fixmagmom: False,
                name: fermi-dirac,
                width: 0.001}
  symmetry: off

System changes: positions, numbers, cell, pbc, initial_charges, initial_magmoms

Initialize ...

O-setup:
  name: Oxygen
  id: 9b9d51c344dea68c822856295a461509
  Z: 8.0
  valence: 6
  core: 2
  charge: 0.0
  file: /home/modules/software/GPAW-setups/0.9.20000/O.LDA.gz
  compensation charges: gauss, rc=0.21, lmax=2
  cutoffs: 1.17(filt), 0.83(core),
  valence states:
                energy  radius
    2s(2.00)   -23.752   0.688
    2p(4.00)    -9.195   0.598
    *s           3.459   0.688
    *p          18.016   0.598
    *d           0.000   0.619

  Using partial waves for O as LCAO basis

Mn-setup:
  name: Manganese
  id: 0d715a8018be061a6e9ea6f2d364ac92
  Z: 25.0
  valence: 15
  core: 10
  charge: 0.0
  file: /home/modules/software/GPAW-setups/0.9.20000/Mn.LDA.gz
  compensation charges: gauss, rc=0.38, lmax=2
  cutoffs: 2.14(filt), 0.86(core),
  valence states:
                energy  radius
    3s(2.00)   -85.387   1.275
    4s(2.00)    -5.282   1.275
    3p(6.00)   -54.493   1.281
    4p(0.00)    -1.471   1.281
    3d(5.00)    -7.009   1.138
    *d          20.203   1.138

[...]

P-setup:
  name: Phosphorus
  id: a5561c299094968922a179ab894d2e2d
  Z: 15.0
  valence: 5
  core: 10
  charge: 0.0
  file: /home/modules/software/GPAW-setups/0.9.20000/P.LDA.gz
  compensation charges: gauss, rc=0.30, lmax=2
  cutoffs: 1.69(filt), 1.81(core),
  valence states:
                energy  radius
    3s(2.00)   -14.015   0.953
    3p(3.00)    -5.596   0.953
    *s          13.197   0.953
    *p          21.615   0.953
    *d           0.000   0.953

[...]

Li-setup:
  name: Lithium
  id: b73562207f97a71b6967473b66fe8b65
  Z: 3.0
  valence: 1
  core: 2
  charge: 0.0
  file: /home/modules/software/GPAW-setups/0.9.20000/Li.LDA.gz
  compensation charges: gauss, rc=0.33, lmax=2
  cutoffs: 1.91(filt), 2.55(core),
  valence states:
                energy  radius
    2s(1.00)    -2.874   1.058
    2p(0.00)    -1.126   1.058
    *s          24.338   1.058

  Using partial waves for Li as LCAO basis

Reference energy: -196157.275402

Non-collinear calculation.
Magnetic moment: (0.000000, 0.000000, 0.000000)

Convergence criteria:
  Maximum total energy change: 0.0005 eV / electron
  Maximum integral of absolute density change: 1e-09 electrons
  Maximum integral of absolute eigenstate change: 4e-08 eV^2
  Maximum number of iterations: 5000

Symmetries present (total): 1

  ( 1  0  0)
  ( 0  1  0)
  ( 0  0  1)

96 k-points: 4 x 4 x 6 Monkhorst-Pack grid
96 k-points in the irreducible part of the Brillouin zone
       k-points in crystal coordinates                weights
   0:    -0.37500000   -0.37500000   -0.41666667          1/96
   1:    -0.37500000   -0.37500000   -0.25000000          1/96
   2:    -0.37500000   -0.37500000   -0.08333333          1/96
   3:    -0.37500000   -0.37500000    0.08333333          1/96
   4:    -0.37500000   -0.37500000    0.25000000          1/96
   5:    -0.37500000   -0.37500000    0.41666667          1/96
   6:    -0.37500000   -0.12500000   -0.41666667          1/96
   7:    -0.37500000   -0.12500000   -0.25000000          1/96
   8:    -0.37500000   -0.12500000   -0.08333333          1/96
   9:    -0.37500000   -0.12500000    0.08333333          1/96
          ...
  95:     0.37500000    0.37500000    0.41666667          1/96

Wave functions: Plane wave expansion
  Cutoff energy: 600.000 eV
  Number of coefficients (min, max): 10065, 10119
  Pulay-stress correction: 0.000000 eV/Ang^3 (de/decut=0.000000)
  Using FFTW library
  ScaLapack parameters: grid=1x1, blocksize=None
  Wavefunction extrapolation:
    Improved wavefunction reuse through dual PAW basis

Occupation numbers: Fermi-Dirac: width=0.0010 eV

Eigensolver
   Davidson(niter=2)

Densities:
  Coarse grid: 60*35*27 grid
  Fine grid: 120*70*54 grid
  Total Charge: 0.000000

Density mixing:
  Method: difference
  Backend: pulay
  Linear mixing parameter: 0.05
  Mixing with 3 old densities
  Damping of long wave oscillations: 100

Hamiltonian:
  XC and Coulomb potentials evaluated on a 120*70*54 grid
  Using the LDA Exchange-Correlation functional
  External potential:
    <gpaw.external.NoExternalPotential object at 0x2ad083553d00>

Total number of cores used: 40
Parallelization over k-points: 40

Number of atoms: 28
Number of atomic orbitals: 148
Number of bands in calculation: 224
Number of valence electrons: 180
Bands to converge: occupied

... initialized

Initializing position-dependent things.

Density initialized from atomic densities
Creating initial wave functions:
  148 bands from LCAO basis set
  76 bands from random numbers

    /|             P  O        |
   / |   O      O            Li|
  /  |            Li Mn      O |
 *   |PO    O           Mn Li  |
 |   | O        Li       O     |
 |   .--Mn----------O---O-P----.
 | O/      MO                 /
 | /            O      O     /
 |/       O  P              /

Positions:
   0 O      3.501927    0.290496    1.014275    ( 0.0000,  0.0000,  0.0000)
   1 O      1.729802    5.809666    3.383721    ( 0.0000,  0.0000,  0.0000)
   2 O      6.965752    3.340877    3.756366    ( 0.0000,  0.0000,  0.0000)
   3 O      8.721320    2.759449    1.387584    ( 0.0000,  0.0000,  0.0000)
   4 O      6.966088    5.808273    3.756424    ( 0.0000,  0.0000, -3.0000)
   5 O      8.720981    0.291400    1.387645    ( 0.0000,  0.0000,  3.0000)
   6 O      3.502157    2.760144    1.014370    ( 0.0000,  0.0000,  3.0000)
   7 O      1.729577    3.339690    3.383816    ( 0.0000,  0.0000, -3.0000)
   8 O      0.441338    1.525179    1.417632    ( 0.0000,  0.0000,  0.0000)
   9 O      4.785695    4.574820    3.785999    ( 0.0000,  0.0000,  0.0000)
  10 O     10.015114    4.574871    3.344253    ( 0.0000,  0.0000,  0.0000)
  11 O      5.676597    1.525124    0.974435    ( 0.0000,  0.0000,  0.0000)
  12 Mn     2.287241    1.524895    2.430088    ( 0.0000,  0.0000,  0.0000)
  13 Mn     2.943735    4.575103    0.060901    ( 5.0000,  0.0000,  0.0000)
  14 Mn     8.173757    4.575213    2.274848    (-5.0000,  0.0000,  0.0000)
  15 Mn     7.515824    1.524786    4.643267    (-5.0000,  0.0000,  0.0000)
  16 P      4.239232    1.525290    0.376869    ( 5.0000,  0.0000,  0.0000)
  17 P      0.992457    4.574706    2.746786    ( 0.0000,  0.0000,  0.0000)
  18 P      6.222394    4.574639    4.371715    ( 0.0000,  0.0000,  0.0000)
  19 P      9.463726    1.525359    2.002550    ( 0.0000,  0.0000,  0.0000)
  20 O      4.207923    1.525298    3.586614    ( 0.0000,  0.0000,  0.0000)
  21 O      1.023879    4.574697    1.216400    ( 0.0000,  0.0000,  0.0000)
  22 O      6.244195    4.574708    1.174946    ( 0.0000,  0.0000,  0.0000)
  23 O      9.443212    1.525292    3.545909    ( 0.0000,  0.0000,  0.0000)
  24 Li    -0.000148    0.012272   -0.038857    ( 0.0000,  0.0000,  0.0000)
  25 Li     5.233199   -0.011916    2.329976    ( 0.0000,  0.0000,  0.0000)
  26 Li    -0.000231    3.037942   -0.038641    ( 0.0000,  0.0000,  0.0000)
  27 Li     5.233258    3.061725    2.330170    ( 0.0000,  0.0000,  0.0000)

Unit cell:
           periodic     x           y           z      points  spacing
  1. axis:    yes   10.460000    0.000000    0.000000    60     0.1743
  2. axis:    yes    0.000000    6.100000    0.000000    35     0.1743
  3. axis:    yes    0.000000    0.000000    4.740000    27     0.1756

  Lengths:  10.460000   6.100000   4.740000
  Angles:   90.000000  90.000000  90.000000

Effective grid spacing dv^(1/3) = 0.1747

                     log10-error:    total        iterations:
           time      wfs    density  energy       poisson
iter:   1  16:22:32                -258.451561            -1.0,+0.0,-0.0
iter:   2  16:23:06  -0.42  -0.89  -266.650409            +0.8,-0.0,+0.2
iter:   3  16:23:41  -0.87  -0.94  -254.705243            +0.0,-0.0,-0.0
iter:   4  16:24:16  -0.62  -0.97  -236.018557            -0.0,+0.0,-0.0
iter:   5  16:24:50  -0.41  -1.09  -232.881726            -0.0,+0.0,-0.0
iter:   6  16:25:25  -1.59  -1.25  -222.133344            -0.0,+0.0,-0.0
iter:   7  16:26:00  -2.42  -1.35  -222.229982            -0.0,+0.0,-0.0
iter:   8  16:26:34  -3.05  -1.35  -222.084588            -0.3,-0.0,-0.0
iter:   9  16:27:09  -2.27  -1.38  -222.343758            -0.6,-0.0,-0.1
iter:  10  16:27:43  -2.15  -1.43  -222.322293            -0.4,-0.0,-0.1
iter:  11  16:28:18  -2.74  -1.50  -223.319102            -0.9,-0.1,-0.1
iter:  12  16:28:52  -2.73  -1.52  -223.141756            -0.7,-0.1,-0.1
iter:  13  16:29:27  -2.82  -1.64  -223.076859            -1.6,-0.1,-0.2
iter:  14  16:30:01  -1.90  -1.67  -223.777922            -3.2,-0.1,-0.3
iter:  15  16:30:36  -2.17  -1.86  -224.899998            -2.2,-0.2,-0.3
iter:  16  16:31:11  -2.96  -1.95  -225.083854            -2.3,-0.2,-0.3
iter:  17  16:31:45  -2.35  -1.97  -226.313191            -0.7,-0.2,-0.1
iter:  18  16:32:20  -2.36  -2.15  -226.404409            -0.0,-0.2,-0.1
iter:  19  16:32:54  -3.50  -2.33  -226.343546            -0.0,-0.2,-0.1
iter:  20  16:33:29  -2.34  -2.42  -226.309953            +0.0,-0.2,-0.1
iter:  21  16:34:03  -3.72  -2.66  -226.279162            +0.0,-0.2,-0.1
iter:  22  16:34:38  -3.71  -2.69  -226.264003            +0.0,-0.2,-0.1
iter:  23  16:35:13  -3.44  -2.74  -226.281251            +0.0,-0.2,-0.1
iter:  24  16:35:47  -3.80  -2.82  -226.265486            +0.0,-0.2,-0.1
iter:  25  16:36:22  -4.25  -2.85  -226.264163            +0.0,-0.2,-0.1
iter:  26  16:36:56  -4.48  -2.87  -226.265587            +0.0,-0.2,-0.1
iter:  27  16:37:31  -4.61  -3.05  -226.264240            +0.0,-0.2,-0.1
iter:  28  16:38:05  -4.59  -3.08  -226.264558            +0.0,-0.2,-0.1
iter:  29  16:38:40  -4.17  -3.11  -226.264577            +0.0,-0.2,-0.1
iter:  30  16:39:14  -4.84  -3.39  -226.263376            +0.0,-0.2,-0.1
iter:  31  16:39:49  -5.48  -3.58  -226.263319            +0.0,-0.2,-0.1
iter:  32  16:40:23  -5.73  -3.61  -226.263265            +0.0,-0.2,-0.1
iter:  33  16:40:58  -6.14  -3.70  -226.263275            +0.0,-0.2,-0.1
iter:  34  16:41:32  -5.35  -3.73  -226.263365            +0.0,-0.2,-0.1
iter:  35  16:42:07  -5.75  -3.89  -226.263380            +0.0,-0.1,-0.1
iter:  36  16:42:41  -5.43  -3.96  -226.263363            +0.0,-0.1,-0.0
iter:  37  16:43:16  -5.62  -4.15  -226.263368            +0.0,-0.1,-0.0
iter:  38  16:43:51  -5.77  -4.25  -226.263388            +0.0,-0.1,-0.0
iter:  39  16:44:25  -6.85  -4.31  -226.263385            +0.0,-0.1,-0.0
iter:  40  16:45:00  -7.20  -4.42  -226.263387            +0.0,-0.1,-0.0
iter:  41  16:45:35  -6.04  -4.45  -226.263395            +0.0,-0.1,-0.0
iter:  42  16:46:09  -6.56  -4.81  -226.263397            +0.0,-0.1,+0.0
iter:  43  16:46:44  -6.94  -5.10  -226.263399            +0.0,-0.1,+0.0
iter:  44  16:47:19  -7.20  -5.15  -226.263400            +0.0,-0.1,+0.0
iter:  45  16:47:53  -6.66  -5.27  -226.263397            -0.0,-0.0,+0.0
iter:  46  16:48:28  -6.20  -5.29  -226.263403            +0.0,-0.0,+0.0
iter:  47  16:49:02  -6.74  -5.35  -226.263404            +0.0,-0.0,+0.0
iter:  48  16:49:37  -8.06  -5.40  -226.263402            +0.0,-0.0,+0.0
iter:  49  16:50:11  -7.92  -5.49  -226.263405            -0.0,-0.0,+0.0
iter:  50  16:50:46  -7.88  -5.61  -226.263404            -0.0,-0.0,+0.0
iter:  51  16:51:20  -8.21  -5.80  -226.263404            -0.0,-0.0,+0.0
iter:  52  16:51:55  -7.56  -5.85  -226.263405            -0.0,-0.0,+0.0
iter:  53  16:52:29  -8.48  -5.92  -226.263405            -0.0,-0.0,+0.0
iter:  54  16:53:04  -8.79  -5.98  -226.263405            -0.0,-0.0,+0.0
iter:  55  16:53:38  -7.70  -6.18  -226.263405            -0.0,-0.0,+0.0
iter:  56  16:54:13  -7.99  -6.21  -226.263405            -0.0,-0.0,+0.0
iter:  57  16:54:47  -7.26  -6.27  -226.263405            -0.0,-0.0,+0.0
iter:  58  16:55:22  -7.53  -6.33  -226.263405            -0.0,-0.0,+0.0
iter:  59  16:55:56  -7.95  -6.28  -226.263405            -0.0,-0.0,+0.0
iter:  60  16:56:31  -8.53  -6.24  -226.263405            -0.0,-0.0,+0.0
[...]
iter: 332  19:31:08 -12.58  -8.59  -226.263409            +0.0,-0.0,+0.0
iter: 333  19:31:42 -11.54  -8.61  -226.263409            +0.0,-0.0,+0.0
iter: 334  19:32:16 -11.48  -8.60  -226.263409            +0.0,-0.0,+0.0
iter: 335  19:32:50 -10.82  -8.56  -226.263409            +0.0,-0.0,+0.0
iter: 336  19:33:24 -10.57  -8.58  -226.263409            +0.0,-0.0,+0.0
iter: 337  19:33:58 -10.14  -8.54  -226.263409            +0.0,-0.0,+0.0
iter: 338  19:34:31  -9.98  -8.59  -226.263410            +0.0,-0.0,+0.0
iter: 339  19:35:05  -9.87  -8.50  -226.263409            +0.0,-0.0,+0.0
iter: 340  19:35:39 -10.00  -8.63  -226.263410            +0.0,-0.0,+0.0
iter: 341  19:36:13 -11.15  -8.73  -226.263409            +0.0,-0.0,+0.0
iter: 342  19:36:47 -11.33  -8.63  -226.263409            +0.0,-0.0,+0.0
iter: 343  19:37:21 -11.70  -8.83  -226.263409            +0.0,-0.0,+0.0
iter: 344  19:37:55 -12.55  -8.85  -226.263409            +0.0,-0.0,+0.0
iter: 345  19:38:29 -10.34  -8.57  -226.263409            +0.0,-0.0,+0.0
iter: 346  19:39:02 -11.96  -9.03  -226.263409            +0.0,-0.0,+0.0

Converged after 346 iterations.

Dipole moment: (-0.120910, -0.005401, 1.226744) |e|*Ang

Total magnetic moment: (0.000371, -0.000482, 0.001925)
Local magnetic moments:
   0 O  (-0.001039, -0.000068,  0.000189)
   1 O  ( 0.001038,  0.000067,  0.000257)
   2 O  (-0.002048, -0.000074, -0.000257)
   3 O  ( 0.002070,  0.000090, -0.000125)
   4 O  (-0.002023,  0.000091, -0.000257)
   5 O  ( 0.002045, -0.000110, -0.000127)
   6 O  (-0.001024,  0.000073,  0.000189)
   7 O  ( 0.001023, -0.000080,  0.000256)
   8 O  (-0.028667,  0.000073, -0.000947)
   9 O  ( 0.028752, -0.000076,  0.001202)
  10 O  ( 0.028620, -0.000102,  0.000901)
  11 O  (-0.028605,  0.000100, -0.001118)
  12 Mn (-4.443841,  0.011289, -0.151162)
  13 Mn ( 4.442776, -0.011588,  0.182800)
  14 Mn ( 4.444523, -0.015942,  0.141008)
  15 Mn (-4.443236,  0.015808, -0.170965)
  16 P  (-0.002075,  0.000010,  0.000078)
  17 P  ( 0.002066, -0.000011,  0.000206)
  18 P  ( 0.001067,  0.000002, -0.000096)
  19 P  (-0.001014, -0.000003, -0.000200)
  20 O  (-0.024825,  0.000064, -0.001019)
  21 O  ( 0.024805, -0.000065,  0.000853)
  22 O  ( 0.025673, -0.000091,  0.000959)
  23 O  (-0.025741,  0.000091, -0.000839)
  24 Li ( 0.000038, -0.000002,  0.000001)
  25 Li (-0.000043,  0.000002, -0.000001)
  26 Li ( 0.000038,  0.000001,  0.000001)
  27 Li (-0.000043, -0.000001, -0.000001)

Energy contributions relative to reference atoms: (reference = -196157.275402)

Kinetic:       +217.273097
Potential:     -195.193980
External:        +0.000000
XC:            -250.383775
Entropy (-ST):   -0.000000
Local:           +2.041249
Free energy:   -226.263409
Extrapolated:  -226.263409

Showing only first 2 kpts
 Kpt  Band  Eigenvalues  Occupancy
  0    88     -2.04071    1.00000
  0    89     -2.03104    1.00000
  0    90     -1.94652    1.00000
  0    91     -1.93795    1.00000

  1    88     -2.16470    1.00000
  1    89     -2.15618    1.00000
  1    90     -2.11024    1.00000
  1    91     -2.09165    1.00000

Fermi level: 6.10238

Gap: 1.968 eV
Transition (v -> c):
  (s=0, k=51, n=179, [0.12, -0.38, 0.08]) -> (s=0, k=63, n=180, [0.12, 0.12, 0.08])

Forces in eV/Ang:
  0 O     0.01743    0.00441   -0.09346
  1 O    -0.02079   -0.00447   -0.09371
  2 O     0.01695   -0.00234   -0.08617
  3 O    -0.02036    0.00245   -0.08734
  4 O     0.01698    0.00236   -0.08614
  5 O    -0.02041   -0.00247   -0.08731
  6 O     0.01741   -0.00435   -0.09339
  7 O    -0.02076    0.00442   -0.09363
  8 O     0.00103   -0.00001   -0.08191
  9 O    -0.00441    0.00000   -0.08052
 10 O     0.00206   -0.00000   -0.08769
 11 O    -0.00477    0.00000   -0.08730
 12 Mn   -0.00220   -0.00001    0.13300
 13 Mn   -0.00157    0.00001    0.13360
 14 Mn    0.00160    0.00002    0.12852
 15 Mn   -0.00582   -0.00002    0.12890
 16 P    -0.01584   -0.00002    0.20690
 17 P     0.01231    0.00002    0.20670
 18 P     0.02942   -0.00002    0.19256
 19 P     0.01342    0.00003    0.19227
 20 O    -0.01591   -0.00000   -0.14669
 21 O     0.01284    0.00000   -0.14704
 22 O    -0.01140   -0.00001   -0.14628
 23 O     0.00898    0.00001   -0.14620
 24 Li   -0.00258    0.00388    0.08024
 25 Li   -0.00050   -0.00385    0.08084
 26 Li   -0.00257   -0.00387    0.08022
 27 Li   -0.00049    0.00382    0.08085