User:   madkru@a104.nifl.fysik.dtu.dk
Date:   Fri Jun 24 19:39:07 2022
Arch:   x86_64
Pid:    4971
Python: 3.8.6
gpaw:   /home/niflheim/madkru/new_venv/gpaw/gpaw (1f0dfc9eae)
_gpaw:  /home/niflheim/madkru/new_venv/gpaw/build/lib.linux-x86_64-skylake-3.8/
        _gpaw.cpython-38-x86_64-linux-gnu.so (c1e45bfab3)
ase:    /home/niflheim/madkru/new_venv/ase/ase (version 3.23.0b1-ca38c75a67)
numpy:  /home/modules/software/SciPy-bundle/2020.11-foss-2020b/lib/python3.8/site-packages/numpy (version 1.19.4)
scipy:  /home/modules/software/SciPy-bundle/2020.11-foss-2020b/lib/python3.8/site-packages/scipy (version 1.5.4)
units:  Angstrom and eV
cores: 40
OpenMP: False
OMP_NUM_THREADS: 1

Input parameters:
  convergence: {density: 1e-09}
  experimental: {magmoms: [[0. 0. 0.]
 [0. 0. 0.]
 [0. 0. 0.]
 ...
 [0. 0. 0.]
 [0. 0. 0.]
 [0. 0. 0.]],
                 soc: True}
  kpts: [4 4 6]
  maxiter: 5000
  mixer: {backend: pulay,
          beta: 0.05,
          method: difference,
          nmaxold: 3,
          weight: 100}
  mode: {ecut: 600.0,
         gammacentered: False,
         name: pw}
  occupations: {fixmagmom: False,
                name: fermi-dirac,
                width: 0.001}
  symmetry: off

System changes: positions, numbers, cell, pbc, initial_charges, initial_magmoms

Initialize ...

O-setup:
  name: Oxygen
  id: 9b9d51c344dea68c822856295a461509
  Z: 8.0
  valence: 6
  core: 2
  charge: 0.0
  file: /home/modules/software/GPAW-setups/0.9.20000/O.LDA.gz
  compensation charges: gauss, rc=0.21, lmax=2
  cutoffs: 1.17(filt), 0.83(core),
  valence states:
                energy  radius
    2s(2.00)   -23.752   0.688
    2p(4.00)    -9.195   0.598
    *s           3.459   0.688
    *p          18.016   0.598
    *d           0.000   0.619

  Using partial waves for O as LCAO basis

Mn-setup:
  name: Manganese
  id: 0d715a8018be061a6e9ea6f2d364ac92
  Z: 25.0
  valence: 15
  core: 10
  charge: 0.0
  file: /home/modules/software/GPAW-setups/0.9.20000/Mn.LDA.gz
  compensation charges: gauss, rc=0.38, lmax=2
  cutoffs: 2.14(filt), 0.86(core),
  valence states:
                energy  radius
    3s(2.00)   -85.387   1.275
    4s(2.00)    -5.282   1.275
    3p(6.00)   -54.493   1.281
    4p(0.00)    -1.471   1.281
    3d(5.00)    -7.009   1.138
    *d          20.203   1.138

[...]

P-setup:
  name: Phosphorus
  id: a5561c299094968922a179ab894d2e2d
  Z: 15.0
  valence: 5
  core: 10
  charge: 0.0
  file: /home/modules/software/GPAW-setups/0.9.20000/P.LDA.gz
  compensation charges: gauss, rc=0.30, lmax=2
  cutoffs: 1.69(filt), 1.81(core),
  valence states:
                energy  radius
    3s(2.00)   -14.015   0.953
    3p(3.00)    -5.596   0.953
    *s          13.197   0.953
    *p          21.615   0.953
    *d           0.000   0.953

[...]

Li-setup:
  name: Lithium
  id: b73562207f97a71b6967473b66fe8b65
  Z: 3.0
  valence: 1
  core: 2
  charge: 0.0
  file: /home/modules/software/GPAW-setups/0.9.20000/Li.LDA.gz
  compensation charges: gauss, rc=0.33, lmax=2
  cutoffs: 1.91(filt), 2.55(core),
  valence states:
                energy  radius
    2s(1.00)    -2.874   1.058
    2p(0.00)    -1.126   1.058
    *s          24.338   1.058

  Using partial waves for Li as LCAO basis

Reference energy: -196157.275402

Non-collinear calculation.
Magnetic moment: (0.000000, 0.000000, 0.000000)

Convergence criteria:
  Maximum total energy change: 0.0005 eV / electron
  Maximum integral of absolute density change: 1e-09 electrons
  Maximum integral of absolute eigenstate change: 4e-08 eV^2
  Maximum number of iterations: 5000

Symmetries present (total): 1

  ( 1  0  0)
  ( 0  1  0)
  ( 0  0  1)

96 k-points: 4 x 4 x 6 Monkhorst-Pack grid
96 k-points in the irreducible part of the Brillouin zone
       k-points in crystal coordinates                weights
   0:    -0.37500000   -0.37500000   -0.41666667          1/96
   1:    -0.37500000   -0.37500000   -0.25000000          1/96
   2:    -0.37500000   -0.37500000   -0.08333333          1/96
   3:    -0.37500000   -0.37500000    0.08333333          1/96
   4:    -0.37500000   -0.37500000    0.25000000          1/96
   5:    -0.37500000   -0.37500000    0.41666667          1/96
   6:    -0.37500000   -0.12500000   -0.41666667          1/96
   7:    -0.37500000   -0.12500000   -0.25000000          1/96
   8:    -0.37500000   -0.12500000   -0.08333333          1/96
   9:    -0.37500000   -0.12500000    0.08333333          1/96
          ...
  95:     0.37500000    0.37500000    0.41666667          1/96

Wave functions: Plane wave expansion
  Cutoff energy: 600.000 eV
  Number of coefficients (min, max): 10065, 10119
  Pulay-stress correction: 0.000000 eV/Ang^3 (de/decut=0.000000)
  Using FFTW library
  ScaLapack parameters: grid=1x1, blocksize=None
  Wavefunction extrapolation:
    Improved wavefunction reuse through dual PAW basis

Occupation numbers: Fermi-Dirac: width=0.0010 eV

Eigensolver
   Davidson(niter=2)

Densities:
  Coarse grid: 60*35*27 grid
  Fine grid: 120*70*54 grid
  Total Charge: 0.000000

Density mixing:
  Method: difference
  Backend: pulay
  Linear mixing parameter: 0.05
  Mixing with 3 old densities
  Damping of long wave oscillations: 100

Hamiltonian:
  XC and Coulomb potentials evaluated on a 120*70*54 grid
  Using the LDA Exchange-Correlation functional
  External potential:
    <gpaw.external.NoExternalPotential object at 0x2ad06db4ef40>

Total number of cores used: 40
Parallelization over k-points: 40

Number of atoms: 28
Number of atomic orbitals: 148
Number of bands in calculation: 224
Number of valence electrons: 180
Bands to converge: occupied

... initialized

Initializing position-dependent things.

Density initialized from atomic densities
Creating initial wave functions:
  148 bands from LCAO basis set
  76 bands from random numbers

    /|             P  O        |
   / |   O      O            Li|
  /  |            Li Mn      O |
 *   |PO    O           Mn Li  |
 |   | O        Li       O     |
 |   .--Mn----------O---O-P----.
 | O/      MO                 /
 | /            O      O     /
 |/       O  P              /

Positions:
   0 O      3.499868    0.290658    1.009014    ( 0.0000,  0.0000,  0.0000)
   1 O      1.731364    5.809443    3.378466    ( 0.0000,  0.0000,  0.0000)
   2 O      6.965155    3.340662    3.751386    ( 0.0000,  0.0000,  0.0000)
   3 O      8.722814    2.759549    1.382377    ( 0.0000,  0.0000,  0.0000)
   4 O      6.965475    5.808521    3.751451    ( 0.0000,  0.0000, -3.0000)
   5 O      8.722492    0.291267    1.382444    ( 0.0000,  0.0000,  3.0000)
   6 O      3.500118    2.760018    1.009104    ( 0.0000,  0.0000,  3.0000)
   7 O      1.731117    3.339877    3.378556    ( 0.0000,  0.0000, -3.0000)
   8 O      0.441881    1.525170    1.413909    ( 0.0000,  0.0000,  0.0000)
   9 O      4.786078    4.574830    3.782791    ( 0.0000,  0.0000,  0.0000)
  10 O     10.015753    4.574864    3.340681    ( 0.0000,  0.0000,  0.0000)
  11 O      5.675450    1.525133    0.970831    ( 0.0000,  0.0000,  0.0000)
  12 Mn     2.286701    1.524877    2.436017    ( 0.0000,  0.0000,  0.0000)
  13 Mn     2.943959    4.575122    0.066537    ( 5.0000,  0.0000,  0.0000)
  14 Mn     8.173965    4.575195    2.280607    (-5.0000,  0.0000,  0.0000)
  15 Mn     7.515747    1.524804    4.649575    (-5.0000,  0.0000,  0.0000)
  16 P      4.238076    1.525302    0.375329    ( 5.0000,  0.0000,  0.0000)
  17 P      0.993082    4.574695    2.745175    ( 0.0000,  0.0000,  0.0000)
  18 P      6.223007    4.574651    4.370394    ( 0.0000,  0.0000,  0.0000)
  19 P      9.464374    1.525349    2.001049    ( 0.0000,  0.0000,  0.0000)
  20 O      4.208612    1.525298    3.582897    ( 0.0000,  0.0000,  0.0000)
  21 O      1.022561    4.574699    1.212650    ( 0.0000,  0.0000,  0.0000)
  22 O      6.246133    4.574706    1.171476    ( 0.0000,  0.0000,  0.0000)
  23 O      9.442167    1.525294    3.542223    ( 0.0000,  0.0000,  0.0000)
  24 Li    -0.000099    0.008181   -0.025904    ( 0.0000,  0.0000,  0.0000)
  25 Li     5.232132   -0.007944    2.343317    ( 0.0000,  0.0000,  0.0000)
  26 Li    -0.000154    3.041961   -0.025760    ( 0.0000,  0.0000,  0.0000)
  27 Li     5.232172    3.057817    2.343447    ( 0.0000,  0.0000,  0.0000)

Unit cell:
           periodic     x           y           z      points  spacing
  1. axis:    yes   10.460000    0.000000    0.000000    60     0.1743
  2. axis:    yes    0.000000    6.100000    0.000000    35     0.1743
  3. axis:    yes    0.000000    0.000000    4.740000    27     0.1756

  Lengths:  10.460000   6.100000   4.740000
  Angles:   90.000000  90.000000  90.000000

Effective grid spacing dv^(1/3) = 0.1747

                     log10-error:    total        iterations:
           time      wfs    density  energy       poisson
iter:   1  19:41:05                -258.462685            -1.0,+0.0,-0.0
iter:   2  19:41:40  -0.42  -0.89  -266.675219            +0.8,-0.0,+0.2
iter:   3  19:42:14  -0.87  -0.94  -254.679923            +0.0,-0.0,-0.0
iter:   4  19:42:49  -0.62  -0.97  -236.052515            -0.0,+0.0,-0.0
iter:   5  19:43:23  -0.42  -1.09  -232.805966            -0.0,+0.0,-0.0
iter:   6  19:43:58  -1.59  -1.25  -222.149062            -0.0,+0.0,-0.0
iter:   7  19:44:33  -2.43  -1.35  -222.229788            -0.0,+0.0,-0.0
iter:   8  19:45:07  -3.01  -1.35  -222.091445            -0.2,-0.0,-0.0
iter:   9  19:45:42  -2.25  -1.38  -222.399893            -0.7,-0.0,-0.1
iter:  10  19:46:17  -2.26  -1.42  -222.973595            -0.3,-0.0,-0.1
iter:  11  19:46:51  -2.79  -1.47  -222.524338            -0.5,-0.0,-0.1
iter:  12  19:47:26  -2.71  -1.53  -222.894693            -0.4,-0.1,-0.1
iter:  13  19:48:01  -2.70  -1.65  -223.676989            -1.6,-0.1,-0.2
iter:  14  19:48:35  -2.28  -1.70  -225.756050            -2.1,-0.2,-0.3
iter:  15  19:49:10  -2.57  -1.74  -226.577905            -0.7,-0.2,-0.4
iter:  16  19:49:45  -2.06  -1.77  -226.564590            +0.1,-0.2,-0.4
iter:  17  19:50:19  -3.07  -1.93  -226.469562            +0.0,-0.2,-0.4
iter:  18  19:50:54  -2.49  -1.97  -226.295446            +0.0,-0.2,-0.4
iter:  19  19:51:29  -3.07  -2.03  -226.298197            +0.0,-0.2,-0.4
iter:  20  19:52:04  -2.43  -2.07  -226.333374            -0.0,-0.2,-0.4
iter:  21  19:52:38  -3.39  -2.44  -226.301128            +0.0,-0.2,-0.4
iter:  22  19:53:13  -3.51  -2.41  -226.298861            +0.0,-0.2,-0.4
iter:  23  19:53:48  -3.24  -2.44  -226.308795            +0.0,-0.2,-0.4
iter:  24  19:54:22  -3.78  -2.63  -226.293424            +0.0,-0.2,-0.4
iter:  25  19:54:57  -4.13  -2.71  -226.290272            +0.0,-0.2,-0.3
iter:  26  19:55:31  -3.68  -2.76  -226.283597            +0.0,-0.2,-0.3
iter:  27  19:56:06  -4.16  -2.93  -226.276428            +0.0,-0.2,-0.3
iter:  28  19:56:41  -4.67  -3.04  -226.275384            +0.0,-0.2,-0.3
iter:  29  19:57:15  -4.27  -3.09  -226.274748            +0.0,-0.2,-0.3
iter:  30  19:57:50  -4.52  -3.31  -226.274526            +0.0,-0.2,-0.3
iter:  31  19:58:24  -5.31  -3.46  -226.274429            +0.0,-0.2,-0.3
iter:  32  19:58:59  -5.71  -3.52  -226.274229            +0.0,-0.2,-0.3
iter:  33  19:59:33  -5.72  -3.57  -226.274132            +0.0,-0.2,-0.4
iter:  34  20:00:08  -6.56  -3.62  -226.274119            +0.0,-0.2,-0.3
iter:  35  20:00:43  -6.06  -3.88  -226.274096            +0.0,-0.2,-0.3
iter:  36  20:01:17  -6.57  -4.43  -226.274100            +0.0,-0.1,-0.3
iter:  37  20:01:52  -7.27  -4.52  -226.274101            +0.0,-0.1,-0.3
iter:  38  20:02:27  -6.56  -4.59  -226.274108            +0.0,-0.1,-0.3
iter:  39  20:03:01  -6.12  -4.72  -226.274127            +0.0,-0.1,-0.3
iter:  40  20:03:36  -6.11  -4.74  -226.274141            +0.0,-0.1,-0.2
iter:  41  20:04:10  -5.74  -4.95  -226.274154            +0.0,-0.1,-0.1
iter:  42  20:04:45  -6.64  -5.18  -226.274153            +0.0,-0.1,-0.1
iter:  43  20:05:19  -7.69  -5.27  -226.274158            +0.0,-0.1,-0.1
iter:  44  20:05:54  -7.72  -5.35  -226.274159            +0.0,-0.1,-0.1
iter:  45  20:06:28  -7.61  -5.39  -226.274159            +0.0,-0.1,-0.1
iter:  46  20:07:03  -6.99  -5.52  -226.274161            +0.0,-0.1,-0.1
iter:  47  20:07:38  -7.68  -5.55  -226.274161            +0.0,-0.1,-0.1
iter:  48  20:08:12  -8.26  -5.76  -226.274161            +0.0,-0.1,-0.1
iter:  49  20:08:47  -9.01  -5.87  -226.274161            +0.0,-0.1,-0.1
iter:  50  20:09:21  -7.77  -5.92  -226.274162            +0.0,-0.1,-0.0
iter:  51  20:09:56  -8.06  -5.94  -226.274162            +0.0,-0.1,-0.0
iter:  52  20:10:30  -8.70  -5.99  -226.274162            +0.0,-0.1,-0.0
iter:  53  20:11:05  -8.57  -6.01  -226.274162            +0.0,-0.1,-0.0
iter:  54  20:11:40  -8.70  -6.20  -226.274162            +0.0,-0.1,-0.0
iter:  55  20:12:14  -7.59  -6.31  -226.274162            +0.0,-0.1,-0.0
iter:  56  20:12:49  -6.63  -6.45  -226.274163            +0.0,-0.0,-0.0
iter:  57  20:13:23  -7.21  -6.44  -226.274163            +0.0,-0.0,-0.0
iter:  58  20:13:58  -8.22  -6.43  -226.274163            +0.0,-0.0,-0.0
iter:  59  20:14:32  -8.99  -6.43  -226.274163            -0.0,-0.0,-0.0
iter:  60  20:15:07  -8.04  -6.59  -226.274163            -0.0,-0.0,-0.0
[...]
iter: 392  23:24:11 -12.94  -8.89  -226.274169            +0.0,-0.0,+0.0
iter: 393  23:24:44 -12.41  -8.93  -226.274169            +0.0,-0.0,+0.0
iter: 394  23:25:19 -11.21  -8.98  -226.274169            +0.0,-0.0,+0.0
iter: 395  23:25:53 -10.96  -8.97  -226.274169            +0.0,-0.0,+0.0
iter: 396  23:26:27 -11.10  -8.88  -226.274168            +0.0,-0.0,+0.0
iter: 397  23:27:01 -10.89  -8.77  -226.274168            +0.0,-0.0,+0.0
iter: 398  23:27:35 -10.73  -8.87  -226.274168            +0.0,-0.0,+0.0
iter: 399  23:28:09 -11.68  -8.76  -226.274168            +0.0,-0.0,+0.0
iter: 400  23:28:43 -11.43  -8.65  -226.274168            +0.0,-0.0,+0.0
iter: 401  23:29:17 -11.19  -8.86  -226.274168            +0.0,-0.0,+0.0
iter: 402  23:29:51 -12.03  -8.89  -226.274168            +0.0,-0.0,+0.0
iter: 403  23:30:25 -11.42  -8.96  -226.274168            +0.0,-0.0,+0.0
iter: 404  23:30:59 -12.53  -8.96  -226.274168            +0.0,-0.0,+0.0
iter: 405  23:31:33 -13.06  -8.95  -226.274168            +0.0,-0.0,+0.0
iter: 406  23:32:07 -12.09  -9.09  -226.274168            +0.0,-0.0,+0.0

Converged after 406 iterations.

Dipole moment: (-0.080601, -0.003591, 0.819470) |e|*Ang

Total magnetic moment: (0.000449, -0.000049, 0.001438)
Local magnetic moments:
   0 O  (-0.000512, -0.000079,  0.000219)
   1 O  ( 0.000515,  0.000072,  0.000218)
   2 O  (-0.001553, -0.000084, -0.000200)
   3 O  ( 0.001566,  0.000092, -0.000195)
   4 O  (-0.001531,  0.000084, -0.000200)
   5 O  ( 0.001543, -0.000093, -0.000195)
   6 O  (-0.000495,  0.000079,  0.000220)
   7 O  ( 0.000499, -0.000073,  0.000218)
   8 O  (-0.028680, -0.000027, -0.000054)
   9 O  ( 0.028744,  0.000027,  0.000304)
  10 O  ( 0.028647,  0.000015,  0.000024)
  11 O  (-0.028644, -0.000015, -0.000250)
  12 Mn (-4.446425, -0.004289, -0.012501)
  13 Mn ( 4.446405,  0.004249,  0.044108)
  14 Mn ( 4.446756,  0.002219,  0.005393)
  15 Mn (-4.446403, -0.002223, -0.035737)
  16 P  (-0.001901,  0.000001,  0.000142)
  17 P  ( 0.001896, -0.000001,  0.000146)
  18 P  ( 0.001227,  0.000003, -0.000131)
  19 P  (-0.001194, -0.000003, -0.000165)
  20 O  (-0.024999, -0.000024, -0.000242)
  21 O  ( 0.024979,  0.000024,  0.000084)
  22 O  ( 0.025564,  0.000013,  0.000180)
  23 O  (-0.025602, -0.000013, -0.000050)
  24 Li ( 0.000026, -0.000001,  0.000000)
  25 Li (-0.000029,  0.000001,  0.000000)
  26 Li ( 0.000026,  0.000001,  0.000000)
  27 Li (-0.000028, -0.000001,  0.000000)

Energy contributions relative to reference atoms: (reference = -196157.275402)

Kinetic:       +217.173108
Potential:     -195.120647
External:        +0.000000
XC:            -250.367983
Entropy (-ST):   -0.000000
Local:           +2.041353
Free energy:   -226.274168
Extrapolated:  -226.274168

Showing only first 2 kpts
 Kpt  Band  Eigenvalues  Occupancy
  0    88     -2.03803    1.00000
  0    89     -2.03139    1.00000
  0    90     -1.94343    1.00000
  0    91     -1.93735    1.00000

  1    88     -2.16108    1.00000
  1    89     -2.15499    1.00000
  1    90     -2.10674    1.00000
  1    91     -2.09363    1.00000

Fermi level: 6.23567

Gap: 1.972 eV
Transition (v -> c):
  (s=0, k=51, n=179, [0.12, -0.38, 0.08]) -> (s=0, k=63, n=180, [0.12, 0.12, 0.08])

Forces in eV/Ang:
  0 O     0.01154    0.00268   -0.06157
  1 O    -0.01384   -0.00270   -0.06183
  2 O     0.01154   -0.00175   -0.05815
  3 O    -0.01368    0.00183   -0.05893
  4 O     0.01156    0.00177   -0.05811
  5 O    -0.01371   -0.00185   -0.05889
  6 O     0.01151   -0.00266   -0.06151
  7 O    -0.01382    0.00268   -0.06176
  8 O     0.00099   -0.00000   -0.05530
  9 O    -0.00323    0.00000   -0.05420
 10 O     0.00101   -0.00000   -0.05786
 11 O    -0.00290    0.00000   -0.05764
 12 Mn   -0.00096   -0.00000    0.08837
 13 Mn   -0.00125    0.00000    0.08880
 14 Mn    0.00071    0.00001    0.08621
 15 Mn   -0.00341   -0.00001    0.08630
 16 P    -0.01072   -0.00001    0.13612
 17 P     0.00836    0.00001    0.13620
 18 P     0.01953   -0.00002    0.13014
 19 P     0.00880    0.00002    0.12979
 20 O    -0.01025   -0.00001   -0.09778
 21 O     0.00813    0.00001   -0.09795
 22 O    -0.00825    0.00001   -0.09729
 23 O     0.00647   -0.00001   -0.09739
 24 Li   -0.00172    0.00267    0.05339
 25 Li   -0.00034   -0.00266    0.05365
 26 Li   -0.00171   -0.00266    0.05338
 27 Li   -0.00034    0.00264    0.05366