User:   madkru@a104.nifl.fysik.dtu.dk
Date:   Sat Jun 25 08:03:27 2022
Arch:   x86_64
Pid:    4971
Python: 3.8.6
gpaw:   /home/niflheim/madkru/new_venv/gpaw/gpaw (1f0dfc9eae)
_gpaw:  /home/niflheim/madkru/new_venv/gpaw/build/lib.linux-x86_64-skylake-3.8/
        _gpaw.cpython-38-x86_64-linux-gnu.so (c1e45bfab3)
ase:    /home/niflheim/madkru/new_venv/ase/ase (version 3.23.0b1-ca38c75a67)
numpy:  /home/modules/software/SciPy-bundle/2020.11-foss-2020b/lib/python3.8/site-packages/numpy (version 1.19.4)
scipy:  /home/modules/software/SciPy-bundle/2020.11-foss-2020b/lib/python3.8/site-packages/scipy (version 1.5.4)
units:  Angstrom and eV
cores: 40
OpenMP: False
OMP_NUM_THREADS: 1

Input parameters:
  convergence: {density: 1e-09}
  experimental: {magmoms: [[0. 0. 0.]
 [0. 0. 0.]
 [0. 0. 0.]
 ...
 [0. 0. 0.]
 [0. 0. 0.]
 [0. 0. 0.]],
                 soc: True}
  kpts: [4 4 6]
  maxiter: 5000
  mixer: {backend: pulay,
          beta: 0.05,
          method: difference,
          nmaxold: 3,
          weight: 100}
  mode: {ecut: 600.0,
         gammacentered: False,
         name: pw}
  occupations: {fixmagmom: False,
                name: fermi-dirac,
                width: 0.001}
  symmetry: off

System changes: positions, numbers, cell, pbc, initial_charges, initial_magmoms

Initialize ...

O-setup:
  name: Oxygen
  id: 9b9d51c344dea68c822856295a461509
  Z: 8.0
  valence: 6
  core: 2
  charge: 0.0
  file: /home/modules/software/GPAW-setups/0.9.20000/O.LDA.gz
  compensation charges: gauss, rc=0.21, lmax=2
  cutoffs: 1.17(filt), 0.83(core),
  valence states:
                energy  radius
    2s(2.00)   -23.752   0.688
    2p(4.00)    -9.195   0.598
    *s           3.459   0.688
    *p          18.016   0.598
    *d           0.000   0.619

  Using partial waves for O as LCAO basis

Mn-setup:
  name: Manganese
  id: 0d715a8018be061a6e9ea6f2d364ac92
  Z: 25.0
  valence: 15
  core: 10
  charge: 0.0
  file: /home/modules/software/GPAW-setups/0.9.20000/Mn.LDA.gz
  compensation charges: gauss, rc=0.38, lmax=2
  cutoffs: 2.14(filt), 0.86(core),
  valence states:
                energy  radius
    3s(2.00)   -85.387   1.275
    4s(2.00)    -5.282   1.275
    3p(6.00)   -54.493   1.281
    4p(0.00)    -1.471   1.281
    3d(5.00)    -7.009   1.138
    *d          20.203   1.138

[...]

P-setup:
  name: Phosphorus
  id: a5561c299094968922a179ab894d2e2d
  Z: 15.0
  valence: 5
  core: 10
  charge: 0.0
  file: /home/modules/software/GPAW-setups/0.9.20000/P.LDA.gz
  compensation charges: gauss, rc=0.30, lmax=2
  cutoffs: 1.69(filt), 1.81(core),
  valence states:
                energy  radius
    3s(2.00)   -14.015   0.953
    3p(3.00)    -5.596   0.953
    *s          13.197   0.953
    *p          21.615   0.953
    *d           0.000   0.953

[...]

Li-setup:
  name: Lithium
  id: b73562207f97a71b6967473b66fe8b65
  Z: 3.0
  valence: 1
  core: 2
  charge: 0.0
  file: /home/modules/software/GPAW-setups/0.9.20000/Li.LDA.gz
  compensation charges: gauss, rc=0.33, lmax=2
  cutoffs: 1.91(filt), 2.55(core),
  valence states:
                energy  radius
    2s(1.00)    -2.874   1.058
    2p(0.00)    -1.126   1.058
    *s          24.338   1.058

  Using partial waves for Li as LCAO basis

Reference energy: -196157.275402

Non-collinear calculation.
Magnetic moment: (0.000000, 0.000000, 0.000000)

Convergence criteria:
  Maximum total energy change: 0.0005 eV / electron
  Maximum integral of absolute density change: 1e-09 electrons
  Maximum integral of absolute eigenstate change: 4e-08 eV^2
  Maximum number of iterations: 5000

Symmetries present (total): 1

  ( 1  0  0)
  ( 0  1  0)
  ( 0  0  1)

96 k-points: 4 x 4 x 6 Monkhorst-Pack grid
96 k-points in the irreducible part of the Brillouin zone
       k-points in crystal coordinates                weights
   0:    -0.37500000   -0.37500000   -0.41666667          1/96
   1:    -0.37500000   -0.37500000   -0.25000000          1/96
   2:    -0.37500000   -0.37500000   -0.08333333          1/96
   3:    -0.37500000   -0.37500000    0.08333333          1/96
   4:    -0.37500000   -0.37500000    0.25000000          1/96
   5:    -0.37500000   -0.37500000    0.41666667          1/96
   6:    -0.37500000   -0.12500000   -0.41666667          1/96
   7:    -0.37500000   -0.12500000   -0.25000000          1/96
   8:    -0.37500000   -0.12500000   -0.08333333          1/96
   9:    -0.37500000   -0.12500000    0.08333333          1/96
          ...
  95:     0.37500000    0.37500000    0.41666667          1/96

Wave functions: Plane wave expansion
  Cutoff energy: 600.000 eV
  Number of coefficients (min, max): 10065, 10119
  Pulay-stress correction: 0.000000 eV/Ang^3 (de/decut=0.000000)
  Using FFTW library
  ScaLapack parameters: grid=1x1, blocksize=None
  Wavefunction extrapolation:
    Improved wavefunction reuse through dual PAW basis

Occupation numbers: Fermi-Dirac: width=0.0010 eV

Eigensolver
   Davidson(niter=2)

Densities:
  Coarse grid: 60*35*27 grid
  Fine grid: 120*70*54 grid
  Total Charge: 0.000000

Density mixing:
  Method: difference
  Backend: pulay
  Linear mixing parameter: 0.05
  Mixing with 3 old densities
  Damping of long wave oscillations: 100

Hamiltonian:
  XC and Coulomb potentials evaluated on a 120*70*54 grid
  Using the LDA Exchange-Correlation functional
  External potential:
    <gpaw.external.NoExternalPotential object at 0x2ad07343b160>

Total number of cores used: 40
Parallelization over k-points: 40

Number of atoms: 28
Number of atomic orbitals: 148
Number of bands in calculation: 224
Number of valence electrons: 180
Bands to converge: occupied

... initialized

Initializing position-dependent things.

Density initialized from atomic densities
Creating initial wave functions:
  148 bands from LCAO basis set
  76 bands from random numbers

    /|             P  O        |
   / |   O      O              |
  /  |              OMn      O |
 *   |P O   O           Mn     |
 |   | O        Li       O     |
 |   Li-Mn----------O----OP----.
 | O/      On Li              /
 | /i           O      O     /
 |/       O  P              /

Positions:
   0 O      3.489575    0.291468    0.982712    ( 0.0000,  0.0000,  0.0000)
   1 O      1.739173    5.808330    3.352191    ( 0.0000,  0.0000,  0.0000)
   2 O      6.962171    3.339588    3.726487    ( 0.0000,  0.0000,  0.0000)
   3 O      8.730282    2.760047    1.356345    ( 0.0000,  0.0000,  0.0000)
   4 O      6.962411    5.809764    3.726589    ( 0.0000,  0.0000, -3.0000)
   5 O      8.730044    0.290603    1.356443    ( 0.0000,  0.0000,  3.0000)
   6 O      3.489920    2.759391    0.982777    ( 0.0000,  0.0000,  3.0000)
   7 O      1.738821    3.340814    3.352255    ( 0.0000,  0.0000, -3.0000)
   8 O      0.444597    1.525122    1.395295    ( 0.0000,  0.0000,  0.0000)
   9 O      4.787992    4.574879    3.766755    ( 0.0000,  0.0000,  0.0000)
  10 O     10.018950    4.574828    3.322820    ( 0.0000,  0.0000,  0.0000)
  11 O      5.669716    1.525177    0.952811    ( 0.0000,  0.0000,  0.0000)
  12 Mn     2.283997    1.524786    2.465662    ( 0.0000,  0.0000,  0.0000)
  13 Mn     2.945080    4.575215    0.094715    ( 5.0000,  0.0000,  0.0000)
  14 Mn     8.175004    4.575106    2.309402    (-5.0000,  0.0000,  0.0000)
  15 Mn     7.515361    1.524896    4.681117    (-5.0000,  0.0000,  0.0000)
  16 P      4.232298    1.525364    0.367630    ( 5.0000,  0.0000,  0.0000)
  17 P      0.996206    4.574640    2.737118    ( 0.0000,  0.0000,  0.0000)
  18 P      6.226077    4.574707    4.363786    ( 0.0000,  0.0000,  0.0000)
  19 P      9.467610    1.525294    1.993546    ( 0.0000,  0.0000,  0.0000)
  20 O      4.212060    1.525298    3.564316    ( 0.0000,  0.0000,  0.0000)
  21 O      1.015970    4.574707    1.193899    ( 0.0000,  0.0000,  0.0000)
  22 O      6.255822    4.574696    1.154123    ( 0.0000,  0.0000,  0.0000)
  23 O      9.436939    1.525303    3.523792    ( 0.0000,  0.0000,  0.0000)
  24 Li     0.000148   -0.012272    0.038857    ( 0.0000,  0.0000,  0.0000)
  25 Li     5.226801    0.011916    2.410024    ( 0.0000,  0.0000,  0.0000)
  26 Li     0.000231    3.062058    0.038641    ( 0.0000,  0.0000,  0.0000)
  27 Li     5.226742    3.038275    2.409830    ( 0.0000,  0.0000,  0.0000)

Unit cell:
           periodic     x           y           z      points  spacing
  1. axis:    yes   10.460000    0.000000    0.000000    60     0.1743
  2. axis:    yes    0.000000    6.100000    0.000000    35     0.1743
  3. axis:    yes    0.000000    0.000000    4.740000    27     0.1756

  Lengths:  10.460000   6.100000   4.740000
  Angles:   90.000000  90.000000  90.000000

Effective grid spacing dv^(1/3) = 0.1747

                     log10-error:    total        iterations:
           time      wfs    density  energy       poisson
iter:   1  08:05:29                -258.498709            -1.0,+0.0,+0.0
iter:   2  08:06:03  -0.42  -0.89  -266.780351            +0.8,-0.0,+0.2
iter:   3  08:06:38  -0.87  -0.94  -254.505978            +0.0,-0.0,+0.0
iter:   4  08:07:12  -0.61  -0.97  -236.171715            -0.0,+0.0,+0.0
iter:   5  08:07:47  -0.42  -1.09  -232.386767            -0.0,+0.0,+0.0
iter:   6  08:08:22  -1.60  -1.25  -222.205666            -0.0,+0.0,+0.0
iter:   7  08:08:56  -2.52  -1.35  -222.157372            -0.1,+0.0,+0.0
iter:   8  08:09:31  -2.40  -1.35  -221.956485            -0.0,-0.0,+0.0
iter:   9  08:10:06  -2.53  -1.38  -224.529816            -0.1,-0.0,-0.0
iter:  10  08:10:40  -2.10  -1.33  -222.908304            -0.1,-0.0,-0.0
iter:  11  08:11:15  -3.06  -1.40  -221.813099            +0.1,-0.0,-0.1
iter:  12  08:11:49  -3.08  -1.49  -222.042158            +0.1,-0.0,-0.1
iter:  13  08:12:24  -2.19  -1.51  -222.542750            +0.0,-0.1,-0.1
iter:  14  08:12:59  -2.51  -1.61  -222.373788            -0.3,-0.1,-0.2
iter:  15  08:13:33  -2.62  -1.73  -223.596489            -0.7,-0.1,-0.2
iter:  16  08:14:08  -2.48  -1.78  -222.545607            +1.1,-0.2,-0.4
iter:  17  08:14:42  -2.23  -1.77  -222.165736            +3.6,-0.2,-0.5
iter:  18  08:15:17  -2.65  -1.94  -223.388074            +2.9,-0.3,-0.6
iter:  19  08:15:52  -2.95  -1.95  -224.007475            +3.5,-0.4,-0.8
iter:  20  08:16:26  -2.82  -2.02  -224.450457            +3.0,-0.4,-1.0
iter:  21  08:17:01  -3.02  -2.15  -224.129891            +3.8,-0.5,-1.4
iter:  22  08:17:35  -2.92  -2.27  -223.947939            +4.8,-0.6,-1.5
iter:  23  08:18:10  -3.48  -2.39  -224.250349            +4.7,-0.6,-1.9
iter:  24  08:18:45  -3.29  -2.45  -224.130868            +4.5,-0.9,-1.4
iter:  25  08:19:19  -3.17  -2.47  -223.969013            +4.2,-0.5,-1.0
iter:  26  08:19:54  -3.55  -2.49  -224.141601            +4.5,-0.4,-1.5
iter:  27  08:20:28  -4.34  -2.50  -224.161952            +4.4,-0.4,-1.5
iter:  28  08:21:03  -3.36  -2.52  -224.511733            +4.1,-0.3,-2.2
iter:  29  08:21:38  -3.03  -2.56  -223.983435            +4.0,-0.4,-0.9
iter:  30  08:22:12  -3.07  -2.66  -223.690508            +4.0,-0.5,+0.2
iter:  31  08:22:47  -2.94  -2.61  -224.298081            +3.7,-0.4,-1.4
iter:  32  08:23:21  -3.22  -2.68  -224.770123            +3.0,-0.5,-1.8
iter:  33  08:23:56  -3.10  -2.55  -224.135994            +4.0,-0.4,-1.3
iter:  34  08:24:31  -3.15  -2.72  -223.629395            +4.1,-0.5,-0.5
iter:  35  08:25:05  -2.90  -2.82  -224.544926            +3.7,-0.5,-2.0
iter:  36  08:25:40  -3.48  -2.73  -224.743532            +3.4,-0.7,-2.4
iter:  37  08:26:14  -3.41  -2.53  -224.969935            +3.0,-0.4,-2.0
iter:  38  08:26:49  -3.45  -2.57  -224.457159            +3.1,-0.4,-1.5
iter:  39  08:27:23  -3.26  -2.64  -225.206369            +2.3,-0.4,-1.6
iter:  40  08:27:58  -4.02  -2.51  -225.305899            +2.2,-0.5,-1.9
iter:  41  08:28:33  -2.62  -2.50  -225.406331            +1.3,-0.5,+0.7
iter:  42  08:29:07  -2.28  -2.47  -226.137379            +0.5,-0.5,-3.0
iter:  43  08:29:42  -2.25  -2.41  -224.640864            +0.7,-0.5,-6.9
iter:  44  08:30:16  -2.29  -2.36  -226.310557            +0.6,-0.5,-3.0
iter:  45  08:30:51  -3.12  -2.42  -226.315065            +0.6,-0.5,-2.8
iter:  46  08:31:26  -3.93  -2.43  -226.329515            +0.6,-0.5,-2.7
iter:  47  08:32:00  -4.12  -2.43  -226.332919            +0.6,-0.5,-2.6
iter:  48  08:32:35  -4.30  -2.45  -226.319960            +0.6,-0.5,-2.6
iter:  49  08:33:09  -3.58  -2.51  -226.279598            +0.6,-0.5,-2.6
iter:  50  08:33:44  -4.68  -2.73  -226.275903            +0.6,-0.5,-2.6
iter:  51  08:34:18  -3.43  -2.77  -226.260097            +0.6,-0.5,-2.6
iter:  52  08:34:53  -4.87  -3.18  -226.259505            +0.6,-0.5,-2.6
iter:  53  08:35:27  -5.20  -3.23  -226.259408            +0.6,-0.5,-2.5
iter:  54  08:36:02  -5.32  -3.27  -226.258761            +0.6,-0.5,-2.5
iter:  55  08:36:36  -5.23  -3.32  -226.258926            +0.6,-0.5,-2.4
iter:  56  08:37:11  -5.88  -3.36  -226.258703            +0.6,-0.5,-2.4
iter:  57  08:37:46  -5.15  -3.39  -226.258067            +0.6,-0.4,-2.4
iter:  58  08:38:20  -5.92  -3.85  -226.258053            +0.6,-0.5,-2.4
iter:  59  08:38:55  -6.14  -4.00  -226.258176            +0.6,-0.5,-2.4
iter:  60  08:39:29  -5.37  -4.06  -226.258397            +0.6,-0.5,-2.2
[...]
iter: 1610  23:18:38 -12.85  -8.16  -226.263427            +0.0,+0.0,-0.0
iter: 1611  23:19:11 -10.66  -8.12  -226.263428            +0.0,+0.0,-0.0
iter: 1612  23:19:45 -11.27  -7.66  -226.263426            +0.0,+0.0,-0.0
iter: 1613  23:20:19 -11.89  -7.52  -226.263429            +0.0,+0.0,-0.0
iter: 1614  23:20:53 -12.39  -7.43  -226.263422            +0.0,+0.0,-0.0
iter: 1615  23:21:26 -11.80  -7.57  -226.263418            +0.0,+0.0,-0.0
iter: 1616  23:22:00 -12.82  -7.94  -226.263432            +0.0,+0.0,-0.0
iter: 1617  23:22:34 -11.43  -8.40  -226.263431            +0.0,+0.0,-0.0
iter: 1618  23:23:07 -10.26  -8.12  -226.263429            +0.0,+0.0,-0.0
iter: 1619  23:23:41 -11.70  -7.28  -226.263432            +0.0,+0.0,-0.0
iter: 1620  23:24:15 -11.95  -7.34  -226.263431            +0.0,+0.0,-0.0
iter: 1621  23:24:49 -11.90  -7.43  -226.263426            +0.0,+0.0,-0.0
iter: 1622  23:25:22 -12.49  -8.11  -226.263426            +0.0,+0.0,-0.0
iter: 1623  23:25:56 -12.02  -8.13  -226.263428            +0.0,+0.0,-0.0
iter: 1624  23:26:29 -10.69  -9.06  -226.263428            +0.0,+0.0,-0.0

Converged after 1624 iterations.

Dipole moment: (0.120897, 0.005337, -1.229050) |e|*Ang

Total magnetic moment: (0.000895, 0.000005, -0.001367)
Local magnetic moments:
   0 O  ( 0.001920, -0.000050,  0.000675)
   1 O  (-0.002056,  0.000118, -0.000295)
   2 O  ( 0.001054, -0.000022,  0.000022)
   3 O  (-0.000912,  0.000117, -0.000461)
   4 O  ( 0.001069,  0.000025,  0.000026)
   5 O  (-0.000926, -0.000120, -0.000464)
   6 O  ( 0.001944,  0.000057,  0.000681)
   7 O  (-0.002079, -0.000125, -0.000301)
   8 O  (-0.027921, -0.000046, -0.006617)
   9 O  ( 0.027809,  0.000046,  0.006827)
  10 O  ( 0.027998,  0.000042,  0.006552)
  11 O  (-0.027951, -0.000042, -0.006809)
  12 Mn (-4.325166, -0.007105, -1.028636)
  13 Mn ( 4.318380,  0.007112,  1.059424)
  14 Mn ( 4.328216,  0.006425,  1.016597)
  15 Mn (-4.320534, -0.006428, -1.048547)
  16 P  (-0.001027, -0.000001, -0.000075)
  17 P  ( 0.000933,  0.000001,  0.000362)
  18 P  ( 0.002013,  0.000004,  0.000346)
  19 P  (-0.001948, -0.000004, -0.000626)
  20 O  (-0.025015, -0.000041, -0.006102)
  21 O  ( 0.025058,  0.000041,  0.005998)
  22 O  ( 0.024204,  0.000036,  0.005855)
  23 O  (-0.024165, -0.000036, -0.005685)
  24 Li (-0.000038,  0.000002, -0.000010)
  25 Li ( 0.000041, -0.000001,  0.000010)
  26 Li (-0.000038, -0.000002, -0.000010)
  27 Li ( 0.000041,  0.000001,  0.000010)

Energy contributions relative to reference atoms: (reference = -196157.275402)

Kinetic:       +217.435586
Potential:     -195.327058
External:        +0.000000
XC:            -250.412328
Entropy (-ST):   -0.000000
Local:           +2.040372
Free energy:   -226.263428
Extrapolated:  -226.263428

Showing only first 2 kpts
 Kpt  Band  Eigenvalues  Occupancy
  0    88     -2.03982    1.00000
  0    89     -2.03001    1.00000
  0    90     -1.94504    1.00000
  0    91     -1.93631    1.00000

  1    88     -2.16388    1.00000
  1    89     -2.15532    1.00000
  1    90     -2.11002    1.00000
  1    91     -2.09132    1.00000

Fermi level: 6.13924

Gap: 1.966 eV
Transition (v -> c):
  (s=0, k=45, n=179, [-0.12, 0.38, 0.08]) -> (s=0, k=33, n=180, [-0.12, -0.12, 0.08])

Forces in eV/Ang:
  0 O    -0.01749   -0.00241    0.08622
  1 O     0.02083    0.00281    0.08753
  2 O    -0.01793    0.00354    0.09327
  3 O     0.02051   -0.00367    0.09369
  4 O    -0.01797   -0.00358    0.09333
  5 O     0.02055    0.00371    0.09378
  6 O    -0.01746    0.00238    0.08624
  7 O     0.02079   -0.00279    0.08756
  8 O    -0.00128    0.00001    0.08816
  9 O     0.00505   -0.00001    0.08718
 10 O    -0.00100    0.00000    0.08212
 11 O     0.00440   -0.00000    0.08001
 12 Mn   -0.00182   -0.00002   -0.12955
 13 Mn    0.00398    0.00002   -0.12902
 14 Mn    0.00145    0.00001   -0.13314
 15 Mn    0.00081   -0.00001   -0.13366
 16 P     0.01609    0.00003   -0.19252
 17 P    -0.01323   -0.00003   -0.19323
 18 P    -0.02803    0.00001   -0.20755
 19 P    -0.01233   -0.00001   -0.20699
 20 O     0.01162    0.00001    0.14600
 21 O    -0.00872   -0.00001    0.14678
 22 O     0.01663   -0.00000    0.14697
 23 O    -0.01237    0.00000    0.14730
 24 Li    0.00248   -0.00385   -0.08036
 25 Li    0.00097    0.00375   -0.07980
 26 Li    0.00248    0.00384   -0.08035
 27 Li    0.00097   -0.00373   -0.07981