User:   madkru@a104.nifl.fysik.dtu.dk
Date:   Sat Jun 25 23:26:34 2022
Arch:   x86_64
Pid:    4971
Python: 3.8.6
gpaw:   /home/niflheim/madkru/new_venv/gpaw/gpaw (1f0dfc9eae)
_gpaw:  /home/niflheim/madkru/new_venv/gpaw/build/lib.linux-x86_64-skylake-3.8/
        _gpaw.cpython-38-x86_64-linux-gnu.so (c1e45bfab3)
ase:    /home/niflheim/madkru/new_venv/ase/ase (version 3.23.0b1-ca38c75a67)
numpy:  /home/modules/software/SciPy-bundle/2020.11-foss-2020b/lib/python3.8/site-packages/numpy (version 1.19.4)
scipy:  /home/modules/software/SciPy-bundle/2020.11-foss-2020b/lib/python3.8/site-packages/scipy (version 1.5.4)
units:  Angstrom and eV
cores: 40
OpenMP: False
OMP_NUM_THREADS: 1

Input parameters:
  convergence: {density: 1e-09}
  experimental: {magmoms: [[0. 0. 0.]
 [0. 0. 0.]
 [0. 0. 0.]
 ...
 [0. 0. 0.]
 [0. 0. 0.]
 [0. 0. 0.]],
                 soc: True}
  kpts: [4 4 6]
  maxiter: 5000
  mixer: {backend: pulay,
          beta: 0.05,
          method: difference,
          nmaxold: 3,
          weight: 100}
  mode: {ecut: 600.0,
         gammacentered: False,
         name: pw}
  occupations: {fixmagmom: False,
                name: fermi-dirac,
                width: 0.001}
  symmetry: off

System changes: positions, numbers, cell, pbc, initial_charges, initial_magmoms

Initialize ...

O-setup:
  name: Oxygen
  id: 9b9d51c344dea68c822856295a461509
  Z: 8.0
  valence: 6
  core: 2
  charge: 0.0
  file: /home/modules/software/GPAW-setups/0.9.20000/O.LDA.gz
  compensation charges: gauss, rc=0.21, lmax=2
  cutoffs: 1.17(filt), 0.83(core),
  valence states:
                energy  radius
    2s(2.00)   -23.752   0.688
    2p(4.00)    -9.195   0.598
    *s           3.459   0.688
    *p          18.016   0.598
    *d           0.000   0.619

  Using partial waves for O as LCAO basis

Mn-setup:
  name: Manganese
  id: 0d715a8018be061a6e9ea6f2d364ac92
  Z: 25.0
  valence: 15
  core: 10
  charge: 0.0
  file: /home/modules/software/GPAW-setups/0.9.20000/Mn.LDA.gz
  compensation charges: gauss, rc=0.38, lmax=2
  cutoffs: 2.14(filt), 0.86(core),
  valence states:
                energy  radius
    3s(2.00)   -85.387   1.275
    4s(2.00)    -5.282   1.275
    3p(6.00)   -54.493   1.281
    4p(0.00)    -1.471   1.281
    3d(5.00)    -7.009   1.138
    *d          20.203   1.138

[...]

P-setup:
  name: Phosphorus
  id: a5561c299094968922a179ab894d2e2d
  Z: 15.0
  valence: 5
  core: 10
  charge: 0.0
  file: /home/modules/software/GPAW-setups/0.9.20000/P.LDA.gz
  compensation charges: gauss, rc=0.30, lmax=2
  cutoffs: 1.69(filt), 1.81(core),
  valence states:
                energy  radius
    3s(2.00)   -14.015   0.953
    3p(3.00)    -5.596   0.953
    *s          13.197   0.953
    *p          21.615   0.953
    *d           0.000   0.953

[...]

Li-setup:
  name: Lithium
  id: b73562207f97a71b6967473b66fe8b65
  Z: 3.0
  valence: 1
  core: 2
  charge: 0.0
  file: /home/modules/software/GPAW-setups/0.9.20000/Li.LDA.gz
  compensation charges: gauss, rc=0.33, lmax=2
  cutoffs: 1.91(filt), 2.55(core),
  valence states:
                energy  radius
    2s(1.00)    -2.874   1.058
    2p(0.00)    -1.126   1.058
    *s          24.338   1.058

  Using partial waves for Li as LCAO basis

Reference energy: -196157.275402

Non-collinear calculation.
Magnetic moment: (0.000000, 0.000000, 0.000000)

Convergence criteria:
  Maximum total energy change: 0.0005 eV / electron
  Maximum integral of absolute density change: 1e-09 electrons
  Maximum integral of absolute eigenstate change: 4e-08 eV^2
  Maximum number of iterations: 5000

Symmetries present (total): 1

  ( 1  0  0)
  ( 0  1  0)
  ( 0  0  1)

96 k-points: 4 x 4 x 6 Monkhorst-Pack grid
96 k-points in the irreducible part of the Brillouin zone
       k-points in crystal coordinates                weights
   0:    -0.37500000   -0.37500000   -0.41666667          1/96
   1:    -0.37500000   -0.37500000   -0.25000000          1/96
   2:    -0.37500000   -0.37500000   -0.08333333          1/96
   3:    -0.37500000   -0.37500000    0.08333333          1/96
   4:    -0.37500000   -0.37500000    0.25000000          1/96
   5:    -0.37500000   -0.37500000    0.41666667          1/96
   6:    -0.37500000   -0.12500000   -0.41666667          1/96
   7:    -0.37500000   -0.12500000   -0.25000000          1/96
   8:    -0.37500000   -0.12500000   -0.08333333          1/96
   9:    -0.37500000   -0.12500000    0.08333333          1/96
          ...
  95:     0.37500000    0.37500000    0.41666667          1/96

Wave functions: Plane wave expansion
  Cutoff energy: 600.000 eV
  Number of coefficients (min, max): 10065, 10119
  Pulay-stress correction: 0.000000 eV/Ang^3 (de/decut=0.000000)
  Using FFTW library
  ScaLapack parameters: grid=1x1, blocksize=None
  Wavefunction extrapolation:
    Improved wavefunction reuse through dual PAW basis

Occupation numbers: Fermi-Dirac: width=0.0010 eV

Eigensolver
   Davidson(niter=2)

Densities:
  Coarse grid: 60*35*27 grid
  Fine grid: 120*70*54 grid
  Total Charge: 0.000000

Density mixing:
  Method: difference
  Backend: pulay
  Linear mixing parameter: 0.05
  Mixing with 3 old densities
  Damping of long wave oscillations: 100

Hamiltonian:
  XC and Coulomb potentials evaluated on a 120*70*54 grid
  Using the LDA Exchange-Correlation functional
  External potential:
    <gpaw.external.NoExternalPotential object at 0x2ad0930aa5b0>

Total number of cores used: 40
Parallelization over k-points: 40

Number of atoms: 28
Number of atomic orbitals: 148
Number of bands in calculation: 224
Number of valence electrons: 180
Bands to converge: occupied

... initialized

Initializing position-dependent things.

Density initialized from atomic densities
Creating initial wave functions:
  148 bands from LCAO basis set
  76 bands from random numbers

    /|             P  O        |
   / |   O      O              |
  /  |              OMn      O |
 *   |P O   O           Mn     |
 |   | O        Li       O     |
 |   Li-Mn----------O----OP----.
 | O/      On Li              /
 | /i           O      O     /
 |/       O  P              /

Positions:
   0 O      3.487516    0.291629    0.977452    ( 0.0000,  0.0000,  0.0000)
   1 O      1.740735    5.808108    3.346936    ( 0.0000,  0.0000,  0.0000)
   2 O      6.961574    3.339374    3.721507    ( 0.0000,  0.0000,  0.0000)
   3 O      8.731776    2.760147    1.351139    ( 0.0000,  0.0000,  0.0000)
   4 O      6.961798    5.810012    3.721617    ( 0.0000,  0.0000, -3.0000)
   5 O      8.731554    0.290470    1.351242    ( 0.0000,  0.0000,  3.0000)
   6 O      3.487881    2.759266    0.977511    ( 0.0000,  0.0000,  3.0000)
   7 O      1.740362    3.341001    3.346995    ( 0.0000,  0.0000, -3.0000)
   8 O      0.445140    1.525112    1.391572    ( 0.0000,  0.0000,  0.0000)
   9 O      4.788375    4.574888    3.763548    ( 0.0000,  0.0000,  0.0000)
  10 O     10.019590    4.574821    3.319248    ( 0.0000,  0.0000,  0.0000)
  11 O      5.668569    1.525186    0.949207    ( 0.0000,  0.0000,  0.0000)
  12 Mn     2.283457    1.524768    2.471591    ( 0.0000,  0.0000,  0.0000)
  13 Mn     2.945304    4.575234    0.100351    ( 5.0000,  0.0000,  0.0000)
  14 Mn     8.175212    4.575088    2.315161    (-5.0000,  0.0000,  0.0000)
  15 Mn     7.515284    1.524915    4.687425    (-5.0000,  0.0000,  0.0000)
  16 P      4.231142    1.525376    0.366090    ( 5.0000,  0.0000,  0.0000)
  17 P      0.996831    4.574629    2.735507    ( 0.0000,  0.0000,  0.0000)
  18 P      6.226691    4.574718    4.362464    ( 0.0000,  0.0000,  0.0000)
  19 P      9.468257    1.525283    1.992045    ( 0.0000,  0.0000,  0.0000)
  20 O      4.212750    1.525298    3.560600    ( 0.0000,  0.0000,  0.0000)
  21 O      1.014652    4.574709    1.190149    ( 0.0000,  0.0000,  0.0000)
  22 O      6.257760    4.574694    1.150653    ( 0.0000,  0.0000,  0.0000)
  23 O      9.435894    1.525305    3.520105    ( 0.0000,  0.0000,  0.0000)
  24 Li     0.000197   -0.016362    0.051809    ( 0.0000,  0.0000,  0.0000)
  25 Li     5.225735    0.015888    2.423365    ( 0.0000,  0.0000,  0.0000)
  26 Li     0.000308    3.066077    0.051521    ( 0.0000,  0.0000,  0.0000)
  27 Li     5.225656    3.034367    2.423106    ( 0.0000,  0.0000,  0.0000)

Unit cell:
           periodic     x           y           z      points  spacing
  1. axis:    yes   10.460000    0.000000    0.000000    60     0.1743
  2. axis:    yes    0.000000    6.100000    0.000000    35     0.1743
  3. axis:    yes    0.000000    0.000000    4.740000    27     0.1756

  Lengths:  10.460000   6.100000   4.740000
  Angles:   90.000000  90.000000  90.000000

Effective grid spacing dv^(1/3) = 0.1747

                     log10-error:    total        iterations:
           time      wfs    density  energy       poisson
iter:   1  23:28:24                -258.501953            -1.0,+0.0,+0.0
iter:   2  23:28:59  -0.42  -0.89  -266.789991            +0.8,-0.0,+0.2
iter:   3  23:29:33  -0.87  -0.94  -254.466088            +0.0,-0.0,+0.0
iter:   4  23:30:08  -0.61  -0.97  -236.179313            -0.0,+0.0,+0.0
iter:   5  23:30:43  -0.42  -1.09  -232.294246            -0.0,+0.0,+0.0
iter:   6  23:31:17  -1.60  -1.25  -222.207523            -0.0,+0.0,+0.0
iter:   7  23:31:52  -2.52  -1.35  -222.150774            -0.1,+0.0,+0.0
iter:   8  23:32:27  -2.38  -1.35  -221.946841            -0.1,-0.0,+0.0
iter:   9  23:33:01  -2.51  -1.38  -224.770339            -0.0,-0.0,-0.0
iter:  10  23:33:36  -1.97  -1.33  -223.398961            -0.1,-0.0,-0.0
iter:  11  23:34:11  -2.90  -1.37  -221.673259            +0.1,-0.0,-0.0
iter:  12  23:34:45  -2.96  -1.48  -221.953539            +0.7,-0.0,-0.1
iter:  13  23:35:20  -2.54  -1.49  -222.219982            +1.2,-0.0,-0.1
iter:  14  23:35:54  -2.62  -1.51  -222.479229            +1.5,-0.1,-0.1
iter:  15  23:36:29  -2.47  -1.58  -223.129338            +2.1,-0.1,-0.2
iter:  16  23:37:04  -2.93  -1.70  -223.598191            +2.7,-0.1,-0.2
iter:  17  23:37:38  -2.51  -1.76  -224.112631            +2.9,-0.1,-0.2
iter:  18  23:38:13  -3.23  -1.94  -224.234166            +2.8,-0.2,-0.2
iter:  19  23:38:47  -2.87  -2.04  -225.352230            +2.1,-0.2,-0.2
iter:  20  23:39:22  -4.17  -2.06  -225.079373            +2.3,-0.3,-0.3
iter:  21  23:39:57  -2.53  -2.06  -226.543095            -0.2,-0.1,-0.2
iter:  22  23:40:31  -3.10  -2.04  -226.575151            +0.0,-0.2,-0.3
iter:  23  23:41:06  -2.35  -2.08  -226.776571            +0.0,-0.2,-0.3
iter:  24  23:41:40  -3.32  -2.14  -226.601057            +0.0,-0.2,-0.3
iter:  25  23:42:15  -1.79  -2.17  -226.410361            -0.0,-0.2,-0.3
iter:  26  23:42:50  -2.71  -2.28  -226.293381            -0.0,-0.2,-0.3
iter:  27  23:43:24  -3.97  -2.39  -226.290554            -0.0,-0.2,-0.3
iter:  28  23:43:59  -3.57  -2.41  -226.269550            -0.0,-0.2,-0.3
iter:  29  23:44:34  -3.12  -2.58  -226.261625            -0.0,-0.2,-0.3
iter:  30  23:45:08  -4.34  -2.65  -226.256513            -0.0,-0.2,-0.3
iter:  31  23:45:43  -4.20  -2.70  -226.254237            -0.0,-0.2,-0.3
iter:  32  23:46:18  -4.49  -2.82  -226.254704            -0.0,-0.2,-0.2
iter:  33  23:46:52  -4.95  -2.88  -226.254608            -0.0,-0.2,-0.2
iter:  34  23:47:27  -3.97  -2.94  -226.249974            -0.0,-0.2,-0.2
iter:  35  23:48:01  -5.06  -3.22  -226.249668            -0.0,-0.2,-0.2
iter:  36  23:48:36  -5.26  -3.31  -226.249012            -0.0,-0.2,-0.2
iter:  37  23:49:11  -5.03  -3.43  -226.248766            -0.0,-0.2,-0.2
iter:  38  23:49:45  -5.85  -3.56  -226.248730            -0.0,-0.2,-0.2
iter:  39  23:50:20  -6.15  -3.61  -226.248644            -0.0,-0.2,-0.2
iter:  40  23:50:55  -5.74  -3.61  -226.248568            -0.0,-0.2,-0.2
iter:  41  23:51:29  -5.90  -3.62  -226.248561            -0.0,-0.2,-0.2
iter:  42  23:52:04  -6.31  -3.66  -226.248469            -0.0,-0.2,-0.2
iter:  43  23:52:39  -6.12  -3.78  -226.248421            -0.0,-0.2,-0.2
iter:  44  23:53:14  -5.91  -3.87  -226.248407            -0.0,-0.2,-0.2
iter:  45  23:53:48  -6.30  -4.03  -226.248413            -0.0,-0.1,-0.2
iter:  46  23:54:23  -5.69  -4.08  -226.248374            -0.0,-0.1,-0.2
iter:  47  23:54:57  -6.80  -4.24  -226.248371            -0.0,-0.1,-0.2
iter:  48  23:55:32  -7.11  -4.27  -226.248362            -0.0,-0.1,-0.2
iter:  49  23:56:07  -7.08  -4.36  -226.248361            -0.0,-0.1,-0.2
iter:  50  23:56:41  -7.43  -4.47  -226.248359            -0.0,-0.1,-0.2
iter:  51  23:57:16  -7.46  -4.59  -226.248362            -0.0,-0.1,-0.2
iter:  52  23:57:51  -7.35  -4.63  -226.248362            -0.0,-0.1,-0.2
iter:  53  23:58:25  -7.36  -4.62  -226.248360            -0.0,-0.1,-0.2
iter:  54  23:59:00  -7.70  -4.62  -226.248362            -0.0,-0.1,-0.2
iter:  55  23:59:34  -7.97  -4.68  -226.248362            -0.0,-0.1,-0.2
iter:  56  00:00:09  -7.19  -4.74  -226.248362            -0.0,-0.1,-0.2
iter:  57  00:00:43  -7.01  -4.88  -226.248365            -0.0,-0.1,-0.2
iter:  58  00:01:17  -6.52  -4.98  -226.248366            -0.0,-0.0,-0.2
iter:  59  00:01:52  -6.85  -5.06  -226.248365            -0.0,-0.0,-0.1
iter:  60  00:02:26  -7.87  -5.08  -226.248367            -0.0,-0.0,-0.2
[...]
iter: 330  02:36:12 -10.57  -8.24  -226.248375            -0.0,-0.0,-0.0
iter: 331  02:36:46 -10.34  -8.37  -226.248378            -0.0,-0.0,-0.0
iter: 332  02:37:20 -10.11  -8.80  -226.248378            -0.0,-0.0,-0.0
iter: 333  02:37:54 -11.06  -8.61  -226.248375            -0.0,-0.0,-0.0
iter: 334  02:38:28 -11.21  -8.74  -226.248374            -0.0,-0.0,-0.0
iter: 335  02:39:02 -10.64  -8.70  -226.248374            -0.0,-0.0,-0.0
iter: 336  02:39:36 -11.21  -8.35  -226.248375            -0.0,-0.0,-0.0
iter: 337  02:40:10 -11.20  -8.27  -226.248375            -0.0,-0.0,-0.0
iter: 338  02:40:44 -10.74  -8.28  -226.248370            -0.0,-0.0,-0.0
iter: 339  02:41:18 -10.65  -8.38  -226.248377            -0.0,-0.0,-0.0
iter: 340  02:41:52 -10.62  -8.42  -226.248380            -0.0,+0.0,-0.0
iter: 341  02:42:25  -9.86  -8.43  -226.248376            -0.0,-0.0,-0.0
iter: 342  02:42:59 -10.64  -8.43  -226.248373            -0.0,+0.0,-0.0
iter: 343  02:43:33 -10.98  -8.92  -226.248373            -0.0,-0.0,-0.0
iter: 344  02:44:07 -10.42  -9.01  -226.248375            -0.0,-0.0,-0.0

Converged after 344 iterations.

Dipole moment: (0.161186, 0.007085, -1.635378) |e|*Ang

Total magnetic moment: (-0.000130, -0.000002, -0.003214)
Local magnetic moments:
   0 O  ( 0.002520, -0.000094,  0.000223)
   1 O  (-0.002567,  0.000088,  0.000146)
   2 O  ( 0.001554, -0.000065, -0.000225)
   3 O  (-0.001525,  0.000069, -0.000236)
   4 O  ( 0.001567,  0.000068, -0.000225)
   5 O  (-0.001539, -0.000072, -0.000236)
   6 O  ( 0.002546,  0.000100,  0.000224)
   7 O  (-0.002592, -0.000094,  0.000147)
   8 O  (-0.028709, -0.000028,  0.000114)
   9 O  ( 0.028619,  0.000028,  0.000095)
  10 O  ( 0.028779,  0.000019, -0.000625)
  11 O  (-0.028793, -0.000019,  0.000366)
  12 Mn (-4.445663, -0.004401,  0.012367)
  13 Mn ( 4.446212,  0.004402,  0.016963)
  14 Mn ( 4.444748,  0.002889, -0.094501)
  15 Mn (-4.445281, -0.002891,  0.062344)
  16 P  (-0.000832,  0.000001,  0.000256)
  17 P  ( 0.000806, -0.000001,  0.000041)
  18 P  ( 0.002195,  0.000003, -0.000088)
  19 P  (-0.002206, -0.000003, -0.000195)
  20 O  (-0.025900, -0.000026, -0.000064)
  21 O  ( 0.025917,  0.000026, -0.000053)
  22 O  ( 0.024764,  0.000016, -0.000345)
  23 O  (-0.024656, -0.000016,  0.000513)
  24 Li (-0.000053,  0.000002, -0.000004)
  25 Li ( 0.000057, -0.000002,  0.000003)
  26 Li (-0.000053, -0.000002, -0.000004)
  27 Li ( 0.000057,  0.000002,  0.000003)

Energy contributions relative to reference atoms: (reference = -196157.275402)

Kinetic:       +217.640409
Potential:     -195.482646
External:        +0.000000
XC:            -250.446011
Entropy (-ST):   -0.000000
Local:           +2.039874
Free energy:   -226.248375
Extrapolated:  -226.248375

Showing only first 2 kpts
 Kpt  Band  Eigenvalues  Occupancy
  0    88     -2.04238    1.00000
  0    89     -2.02980    1.00000
  0    90     -1.94813    1.00000
  0    91     -1.93730    1.00000

  1    88     -2.16797    1.00000
  1    89     -2.15739    1.00000
  1    90     -2.11351    1.00000
  1    91     -2.09009    1.00000

Fermi level: 6.27545

Gap: 1.962 eV
Transition (v -> c):
  (s=0, k=45, n=179, [-0.12, 0.38, 0.08]) -> (s=0, k=33, n=180, [-0.12, -0.12, 0.08])

Forces in eV/Ang:
  0 O    -0.02314   -0.00271    0.11351
  1 O     0.02758    0.00323    0.11541
  2 O    -0.02421    0.00505    0.12586
  3 O     0.02743   -0.00523    0.12638
  4 O    -0.02424   -0.00512    0.12592
  5 O     0.02746    0.00530    0.12648
  6 O    -0.02309    0.00269    0.11353
  7 O     0.02751   -0.00322    0.11543
  8 O    -0.00223    0.00001    0.11883
  9 O     0.00709   -0.00000    0.11742
 10 O    -0.00071    0.00001    0.10822
 11 O     0.00549   -0.00000    0.10538
 12 Mn   -0.00330   -0.00003   -0.17201
 13 Mn    0.00576    0.00004   -0.17102
 14 Mn    0.00269    0.00002   -0.17827
 15 Mn   -0.00005   -0.00002   -0.17905
 16 P     0.02167    0.00003   -0.25352
 17 P    -0.01776   -0.00003   -0.25467
 18 P    -0.03733    0.00002   -0.28038
 19 P    -0.01615   -0.00002   -0.27955
 20 O     0.01444    0.00003    0.19518
 21 O    -0.01035   -0.00004    0.19600
 22 O     0.02301   -0.00002    0.19623
 23 O    -0.01717    0.00002    0.19689
 24 Li    0.00326   -0.00488   -0.10750
 25 Li    0.00152    0.00469   -0.10651
 26 Li    0.00325    0.00487   -0.10748
 27 Li    0.00151   -0.00466   -0.10652