User:   madkru@a104.nifl.fysik.dtu.dk
Date:   Fri Jun 24 23:32:12 2022
Arch:   x86_64
Pid:    4971
Python: 3.8.6
gpaw:   /home/niflheim/madkru/new_venv/gpaw/gpaw (1f0dfc9eae)
_gpaw:  /home/niflheim/madkru/new_venv/gpaw/build/lib.linux-x86_64-skylake-3.8/
        _gpaw.cpython-38-x86_64-linux-gnu.so (c1e45bfab3)
ase:    /home/niflheim/madkru/new_venv/ase/ase (version 3.23.0b1-ca38c75a67)
numpy:  /home/modules/software/SciPy-bundle/2020.11-foss-2020b/lib/python3.8/site-packages/numpy (version 1.19.4)
scipy:  /home/modules/software/SciPy-bundle/2020.11-foss-2020b/lib/python3.8/site-packages/scipy (version 1.5.4)
units:  Angstrom and eV
cores: 40
OpenMP: False
OMP_NUM_THREADS: 1

Input parameters:
  convergence: {density: 1e-09}
  experimental: {magmoms: [[0. 0. 0.]
 [0. 0. 0.]
 [0. 0. 0.]
 ...
 [0. 0. 0.]
 [0. 0. 0.]
 [0. 0. 0.]],
                 soc: True}
  kpts: [4 4 6]
  maxiter: 5000
  mixer: {backend: pulay,
          beta: 0.05,
          method: difference,
          nmaxold: 3,
          weight: 100}
  mode: {ecut: 600.0,
         gammacentered: False,
         name: pw}
  occupations: {fixmagmom: False,
                name: fermi-dirac,
                width: 0.001}
  symmetry: off

System changes: positions, numbers, cell, pbc, initial_charges, initial_magmoms

Initialize ...

O-setup:
  name: Oxygen
  id: 9b9d51c344dea68c822856295a461509
  Z: 8.0
  valence: 6
  core: 2
  charge: 0.0
  file: /home/modules/software/GPAW-setups/0.9.20000/O.LDA.gz
  compensation charges: gauss, rc=0.21, lmax=2
  cutoffs: 1.17(filt), 0.83(core),
  valence states:
                energy  radius
    2s(2.00)   -23.752   0.688
    2p(4.00)    -9.195   0.598
    *s           3.459   0.688
    *p          18.016   0.598
    *d           0.000   0.619

  Using partial waves for O as LCAO basis

Mn-setup:
  name: Manganese
  id: 0d715a8018be061a6e9ea6f2d364ac92
  Z: 25.0
  valence: 15
  core: 10
  charge: 0.0
  file: /home/modules/software/GPAW-setups/0.9.20000/Mn.LDA.gz
  compensation charges: gauss, rc=0.38, lmax=2
  cutoffs: 2.14(filt), 0.86(core),
  valence states:
                energy  radius
    3s(2.00)   -85.387   1.275
    4s(2.00)    -5.282   1.275
    3p(6.00)   -54.493   1.281
    4p(0.00)    -1.471   1.281
    3d(5.00)    -7.009   1.138
    *d          20.203   1.138

[...]

P-setup:
  name: Phosphorus
  id: a5561c299094968922a179ab894d2e2d
  Z: 15.0
  valence: 5
  core: 10
  charge: 0.0
  file: /home/modules/software/GPAW-setups/0.9.20000/P.LDA.gz
  compensation charges: gauss, rc=0.30, lmax=2
  cutoffs: 1.69(filt), 1.81(core),
  valence states:
                energy  radius
    3s(2.00)   -14.015   0.953
    3p(3.00)    -5.596   0.953
    *s          13.197   0.953
    *p          21.615   0.953
    *d           0.000   0.953

[...]

Li-setup:
  name: Lithium
  id: b73562207f97a71b6967473b66fe8b65
  Z: 3.0
  valence: 1
  core: 2
  charge: 0.0
  file: /home/modules/software/GPAW-setups/0.9.20000/Li.LDA.gz
  compensation charges: gauss, rc=0.33, lmax=2
  cutoffs: 1.91(filt), 2.55(core),
  valence states:
                energy  radius
    2s(1.00)    -2.874   1.058
    2p(0.00)    -1.126   1.058
    *s          24.338   1.058

  Using partial waves for Li as LCAO basis

Reference energy: -196157.275402

Non-collinear calculation.
Magnetic moment: (0.000000, 0.000000, 0.000000)

Convergence criteria:
  Maximum total energy change: 0.0005 eV / electron
  Maximum integral of absolute density change: 1e-09 electrons
  Maximum integral of absolute eigenstate change: 4e-08 eV^2
  Maximum number of iterations: 5000

Symmetries present (total): 1

  ( 1  0  0)
  ( 0  1  0)
  ( 0  0  1)

96 k-points: 4 x 4 x 6 Monkhorst-Pack grid
96 k-points in the irreducible part of the Brillouin zone
       k-points in crystal coordinates                weights
   0:    -0.37500000   -0.37500000   -0.41666667          1/96
   1:    -0.37500000   -0.37500000   -0.25000000          1/96
   2:    -0.37500000   -0.37500000   -0.08333333          1/96
   3:    -0.37500000   -0.37500000    0.08333333          1/96
   4:    -0.37500000   -0.37500000    0.25000000          1/96
   5:    -0.37500000   -0.37500000    0.41666667          1/96
   6:    -0.37500000   -0.12500000   -0.41666667          1/96
   7:    -0.37500000   -0.12500000   -0.25000000          1/96
   8:    -0.37500000   -0.12500000   -0.08333333          1/96
   9:    -0.37500000   -0.12500000    0.08333333          1/96
          ...
  95:     0.37500000    0.37500000    0.41666667          1/96

Wave functions: Plane wave expansion
  Cutoff energy: 600.000 eV
  Number of coefficients (min, max): 10065, 10119
  Pulay-stress correction: 0.000000 eV/Ang^3 (de/decut=0.000000)
  Using FFTW library
  ScaLapack parameters: grid=1x1, blocksize=None
  Wavefunction extrapolation:
    Improved wavefunction reuse through dual PAW basis

Occupation numbers: Fermi-Dirac: width=0.0010 eV

Eigensolver
   Davidson(niter=2)

Densities:
  Coarse grid: 60*35*27 grid
  Fine grid: 120*70*54 grid
  Total Charge: 0.000000

Density mixing:
  Method: difference
  Backend: pulay
  Linear mixing parameter: 0.05
  Mixing with 3 old densities
  Damping of long wave oscillations: 100

Hamiltonian:
  XC and Coulomb potentials evaluated on a 120*70*54 grid
  Using the LDA Exchange-Correlation functional
  External potential:
    <gpaw.external.NoExternalPotential object at 0x2ad066c5c490>

Total number of cores used: 40
Parallelization over k-points: 40

Number of atoms: 28
Number of atomic orbitals: 148
Number of bands in calculation: 224
Number of valence electrons: 180
Bands to converge: occupied

... initialized

Initializing position-dependent things.

Density initialized from atomic densities
Creating initial wave functions:
  148 bands from LCAO basis set
  76 bands from random numbers

    /|             P  O        |
   / |   O      O            Li|
  /  |            Li Mn      O |
 *   |PO    O           Mn Li  |
 |   | O        Li       O     |
 |   .--Mn----------O---O-P----.
 | O/      MO                 /
 | /            O      O     /
 |/       O  P              /

Positions:
   0 O      3.497809    0.290820    1.003754    ( 0.0000,  0.0000,  0.0000)
   1 O      1.732926    5.809221    3.373211    ( 0.0000,  0.0000,  0.0000)
   2 O      6.964558    3.340447    3.746406    ( 0.0000,  0.0000,  0.0000)
   3 O      8.724307    2.759648    1.377171    ( 0.0000,  0.0000,  0.0000)
   4 O      6.964862    5.808770    3.746479    ( 0.0000,  0.0000, -3.0000)
   5 O      8.724002    0.291135    1.377244    ( 0.0000,  0.0000,  3.0000)
   6 O      3.498078    2.759893    1.003839    ( 0.0000,  0.0000,  3.0000)
   7 O      1.732658    3.340065    3.373296    ( 0.0000,  0.0000, -3.0000)
   8 O      0.442425    1.525160    1.410186    ( 0.0000,  0.0000,  0.0000)
   9 O      4.786461    4.574840    3.779584    ( 0.0000,  0.0000,  0.0000)
  10 O     10.016393    4.574857    3.337109    ( 0.0000,  0.0000,  0.0000)
  11 O      5.674303    1.525142    0.967227    ( 0.0000,  0.0000,  0.0000)
  12 Mn     2.286160    1.524859    2.441946    ( 0.0000,  0.0000,  0.0000)
  13 Mn     2.944183    4.575140    0.072172    ( 5.0000,  0.0000,  0.0000)
  14 Mn     8.174173    4.575177    2.286366    (-5.0000,  0.0000,  0.0000)
  15 Mn     7.515670    1.524823    4.655884    (-5.0000,  0.0000,  0.0000)
  16 P      4.236920    1.525314    0.373789    ( 5.0000,  0.0000,  0.0000)
  17 P      0.993707    4.574684    2.743564    ( 0.0000,  0.0000,  0.0000)
  18 P      6.223621    4.574662    4.369072    ( 0.0000,  0.0000,  0.0000)
  19 P      9.465021    1.525338    1.999548    ( 0.0000,  0.0000,  0.0000)
  20 O      4.209302    1.525298    3.579181    ( 0.0000,  0.0000,  0.0000)
  21 O      1.021242    4.574701    1.208900    ( 0.0000,  0.0000,  0.0000)
  22 O      6.248071    4.574704    1.168005    ( 0.0000,  0.0000,  0.0000)
  23 O      9.441121    1.525296    3.538537    ( 0.0000,  0.0000,  0.0000)
  24 Li    -0.000049    0.004091   -0.012952    ( 0.0000,  0.0000,  0.0000)
  25 Li     5.231066   -0.003972    2.356659    ( 0.0000,  0.0000,  0.0000)
  26 Li    -0.000077    3.045981   -0.012880    ( 0.0000,  0.0000,  0.0000)
  27 Li     5.231086    3.053908    2.356723    ( 0.0000,  0.0000,  0.0000)

Unit cell:
           periodic     x           y           z      points  spacing
  1. axis:    yes   10.460000    0.000000    0.000000    60     0.1743
  2. axis:    yes    0.000000    6.100000    0.000000    35     0.1743
  3. axis:    yes    0.000000    0.000000    4.740000    27     0.1756

  Lengths:  10.460000   6.100000   4.740000
  Angles:   90.000000  90.000000  90.000000

Effective grid spacing dv^(1/3) = 0.1747

                     log10-error:    total        iterations:
           time      wfs    density  energy       poisson
iter:   1  23:34:11                -258.472289            -1.0,+0.0,-0.0
iter:   2  23:34:46  -0.42  -0.89  -266.701456            +0.8,-0.0,+0.2
iter:   3  23:35:20  -0.87  -0.94  -254.649652            +0.0,-0.0,-0.0
iter:   4  23:35:55  -0.62  -0.97  -236.084712            -0.0,+0.0,-0.0
iter:   5  23:36:29  -0.42  -1.09  -232.724362            -0.0,+0.0,+0.0
iter:   6  23:37:04  -1.60  -1.25  -222.163242            -0.0,+0.0,+0.0
iter:   7  23:37:38  -2.46  -1.35  -222.190661            -0.0,+0.0,-0.0
iter:   8  23:38:13  -2.72  -1.35  -222.038697            -0.0,-0.0,-0.0
iter:   9  23:38:48  -2.54  -1.38  -222.956658            -0.3,-0.0,-0.0
iter:  10  23:39:22  -2.58  -1.38  -222.249965            +0.1,-0.1,-0.0
iter:  11  23:39:57  -2.68  -1.44  -222.799392            +0.1,-0.1,-0.0
iter:  12  23:40:32  -2.90  -1.50  -222.940181            +0.7,-0.1,-0.0
iter:  13  23:41:06  -2.60  -1.61  -224.710671            +0.5,-0.2,-0.0
iter:  14  23:41:41  -2.82  -1.63  -224.866744            +1.5,-0.3,-0.0
iter:  15  23:42:15  -1.63  -1.66  -226.204998            +0.7,-0.1,-0.0
iter:  16  23:42:50  -2.34  -1.81  -226.467641            +0.0,-0.1,-0.0
iter:  17  23:43:24  -1.64  -1.85  -226.788773            +0.0,-0.1,-0.0
iter:  18  23:43:59  -2.44  -2.13  -226.318466            +0.0,-0.1,-0.0
iter:  19  23:44:33  -3.66  -2.28  -226.343189            +0.0,-0.1,-0.0
iter:  20  23:45:08  -4.05  -2.46  -226.334404            -0.0,-0.1,-0.0
iter:  21  23:45:42  -2.72  -2.51  -226.289629            +0.0,-0.1,-0.0
iter:  22  23:46:17  -4.12  -2.81  -226.283870            +0.0,-0.1,-0.0
iter:  23  23:46:52  -3.32  -2.82  -226.283400            +0.0,-0.1,-0.0
iter:  24  23:47:26  -3.49  -2.87  -226.285457            +0.0,-0.1,-0.0
iter:  25  23:48:01  -4.56  -3.07  -226.281773            +0.0,-0.1,-0.0
iter:  26  23:48:35  -4.83  -3.12  -226.281117            +0.0,-0.1,-0.0
iter:  27  23:49:10  -5.19  -3.18  -226.281275            +0.0,-0.1,-0.0
iter:  28  23:49:44  -5.86  -3.28  -226.281005            +0.0,-0.1,-0.0
iter:  29  23:50:19  -4.80  -3.31  -226.280826            +0.0,-0.1,-0.0
iter:  30  23:50:53  -4.90  -3.42  -226.280892            +0.0,-0.1,-0.0
iter:  31  23:51:28  -5.38  -3.59  -226.280665            +0.0,-0.1,-0.0
iter:  32  23:52:02  -6.05  -3.70  -226.280664            +0.0,-0.1,-0.0
iter:  33  23:52:37  -5.88  -3.74  -226.280594            +0.0,-0.1,-0.0
iter:  34  23:53:12  -6.35  -3.93  -226.280605            +0.0,-0.1,-0.0
iter:  35  23:53:46  -6.52  -4.04  -226.280612            +0.0,-0.1,-0.0
iter:  36  23:54:21  -7.26  -4.13  -226.280611            +0.0,-0.1,-0.0
iter:  37  23:54:55  -6.85  -4.20  -226.280605            +0.0,-0.1,-0.0
iter:  38  23:55:29  -6.94  -4.34  -226.280606            +0.0,-0.1,-0.0
iter:  39  23:56:04  -6.69  -4.37  -226.280604            +0.0,-0.0,-0.0
iter:  40  23:56:39  -6.75  -4.48  -226.280608            +0.0,-0.0,-0.0
iter:  41  23:57:13  -7.24  -4.53  -226.280608            +0.0,-0.0,-0.0
iter:  42  23:57:48  -7.37  -4.73  -226.280610            +0.0,-0.0,-0.0
iter:  43  23:58:22  -6.94  -4.82  -226.280606            +0.0,-0.0,-0.0
iter:  44  23:58:57  -6.79  -5.10  -226.280610            +0.0,-0.0,-0.0
iter:  45  23:59:31  -6.09  -5.16  -226.280615            +0.0,-0.0,-0.0
iter:  46  00:00:06  -7.35  -5.36  -226.280616            +0.0,-0.0,-0.0
iter:  47  00:00:40  -8.30  -5.41  -226.280616            +0.0,-0.0,-0.0
iter:  48  00:01:15  -8.79  -5.45  -226.280616            +0.0,-0.0,-0.0
iter:  49  00:01:49  -9.22  -5.76  -226.280616            +0.0,-0.0,-0.0
iter:  50  00:02:23  -8.31  -6.09  -226.280616            +0.0,-0.0,-0.0
iter:  51  00:02:58  -7.52  -6.18  -226.280617            +0.0,-0.0,-0.0
iter:  52  00:03:33  -7.20  -6.24  -226.280617            +0.0,-0.0,+0.0
iter:  53  00:04:07  -7.27  -6.38  -226.280617            +0.0,-0.0,+0.0
iter:  54  00:04:41  -8.55  -6.56  -226.280617            +0.0,-0.0,+0.0
iter:  55  00:05:16  -9.17  -6.56  -226.280617            +0.0,-0.0,+0.0
iter:  56  00:05:50  -9.39  -6.67  -226.280617            +0.0,-0.0,+0.0
iter:  57  00:06:25  -9.88  -6.70  -226.280617            +0.0,-0.0,+0.0
iter:  58  00:06:59  -9.19  -6.78  -226.280617            +0.0,-0.0,+0.0
iter:  59  00:07:33 -10.06  -6.80  -226.280617            +0.0,-0.0,+0.0
iter:  60  00:08:08  -8.92  -6.88  -226.280617            +0.0,-0.0,+0.0
[...]
iter: 177  01:14:38 -10.57  -8.66  -226.280617            +0.0,-0.0,+0.0
iter: 178  01:15:12 -10.79  -7.99  -226.280617            +0.0,-0.0,+0.0
iter: 179  01:15:46 -10.02  -8.65  -226.280617            +0.0,-0.0,+0.0
iter: 180  01:16:20 -10.46  -8.72  -226.280617            +0.0,-0.0,+0.0
iter: 181  01:16:54 -10.81  -8.62  -226.280617            +0.0,-0.0,+0.0
iter: 182  01:17:28  -9.94  -8.70  -226.280617            +0.0,-0.0,+0.0
iter: 183  01:18:02 -10.26  -8.47  -226.280617            +0.0,-0.0,+0.0
iter: 184  01:18:37 -10.10  -8.80  -226.280617            +0.0,-0.0,+0.0
iter: 185  01:19:11  -9.80  -8.58  -226.280617            +0.0,-0.0,+0.0
iter: 186  01:19:45  -9.93  -8.88  -226.280617            +0.0,-0.0,+0.0
iter: 187  01:20:19 -10.95  -8.65  -226.280617            +0.0,-0.0,+0.0
iter: 188  01:20:53 -10.02  -8.56  -226.280617            +0.0,-0.0,+0.0
iter: 189  01:21:27 -11.48  -8.46  -226.280617            +0.0,-0.0,+0.0
iter: 190  01:22:01 -11.84  -8.59  -226.280617            +0.0,-0.0,+0.0
iter: 191  01:22:36 -10.58  -9.21  -226.280617            +0.0,-0.0,+0.0

Converged after 191 iterations.

Dipole moment: (-0.040296, -0.001788, 0.410280) |e|*Ang

Total magnetic moment: (0.000438, -0.001035, 0.000848)
Local magnetic moments:
   0 O  ( 0.000004, -0.000086,  0.000218)
   1 O  (-0.000012,  0.000067,  0.000208)
   2 O  (-0.001045, -0.000078, -0.000205)
   3 O  ( 0.001063,  0.000089, -0.000199)
   4 O  (-0.001024,  0.000082, -0.000205)
   5 O  ( 0.001042, -0.000092, -0.000199)
   6 O  ( 0.000022,  0.000078,  0.000219)
   7 O  (-0.000030, -0.000086,  0.000209)
   8 O  (-0.028678, -0.000070, -0.000169)
   9 O  ( 0.028713,  0.000063,  0.000415)
  10 O  ( 0.028662,  0.000028,  0.000121)
  11 O  (-0.028663, -0.000029, -0.000354)
  12 Mn (-4.446298, -0.011009, -0.030259)
  13 Mn ( 4.446228,  0.009985,  0.061604)
  14 Mn ( 4.446639,  0.004284,  0.020838)
  15 Mn (-4.446207, -0.004191, -0.051436)
  16 P  (-0.001729,  0.000002,  0.000140)
  17 P  ( 0.001717, -0.000005,  0.000151)
  18 P  ( 0.001392,  0.000009, -0.000123)
  19 P  (-0.001366, -0.000010, -0.000171)
  20 O  (-0.025150, -0.000062, -0.000339)
  21 O  ( 0.025137,  0.000056,  0.000188)
  22 O  ( 0.025434,  0.000025,  0.000272)
  23 O  (-0.025448, -0.000025, -0.000135)
  24 Li ( 0.000013, -0.000001, -0.000000)
  25 Li (-0.000014,  0.000001,  0.000000)
  26 Li ( 0.000013, -0.000000, -0.000000)
  27 Li (-0.000014, -0.000000,  0.000000)

Energy contributions relative to reference atoms: (reference = -196157.275402)

Kinetic:       +217.123972
Potential:     -195.085522
External:        +0.000000
XC:            -250.360426
Entropy (-ST):   -0.000000
Local:           +2.041358
Free energy:   -226.280617
Extrapolated:  -226.280617

Showing only first 2 kpts
 Kpt  Band  Eigenvalues  Occupancy
  0    88     -2.03561    1.00000
  0    89     -2.03222    1.00000
  0    90     -1.94076    1.00000
  0    91     -1.93760    1.00000

  1    88     -2.15812    1.00000
  1    89     -2.15494    1.00000
  1    90     -2.10310    1.00000
  1    91     -2.09632    1.00000

Fermi level: 6.32868

Gap: 1.974 eV
Transition (v -> c):
  (s=0, k=51, n=179, [0.12, -0.38, 0.08]) -> (s=0, k=33, n=180, [-0.12, -0.12, 0.08])

Forces in eV/Ang:
  0 O     0.00566    0.00119   -0.03047
  1 O    -0.00688   -0.00116   -0.03062
  2 O     0.00597   -0.00100   -0.02939
  3 O    -0.00693    0.00105   -0.02982
  4 O     0.00596    0.00102   -0.02934
  5 O    -0.00693   -0.00107   -0.02977
  6 O     0.00563   -0.00119   -0.03042
  7 O    -0.00685    0.00116   -0.03056
  8 O     0.00082    0.00000   -0.02798
  9 O    -0.00188   -0.00000   -0.02722
 10 O     0.00017   -0.00000   -0.02863
 11 O    -0.00117    0.00000   -0.02868
 12 Mn   -0.00020   -0.00000    0.04405
 13 Mn   -0.00068    0.00000    0.04438
 14 Mn    0.00015    0.00001    0.04335
 15 Mn   -0.00151   -0.00001    0.04321
 16 P    -0.00550    0.00000    0.06708
 17 P     0.00427   -0.00000    0.06728
 18 P     0.00979   -0.00001    0.06606
 19 P     0.00430    0.00001    0.06574
 20 O    -0.00497   -0.00002   -0.04902
 21 O     0.00380    0.00002   -0.04900
 22 O    -0.00441    0.00002   -0.04846
 23 O     0.00348   -0.00001   -0.04862
 24 Li   -0.00085    0.00136    0.02666
 25 Li   -0.00018   -0.00136    0.02673
 26 Li   -0.00085   -0.00135    0.02666
 27 Li   -0.00018    0.00135    0.02674