User:   madkru@a104.nifl.fysik.dtu.dk
Date:   Fri Jun 24 13:04:29 2022
Arch:   x86_64
Pid:    4971
Python: 3.8.6
gpaw:   /home/niflheim/madkru/new_venv/gpaw/gpaw (1f0dfc9eae)
_gpaw:  /home/niflheim/madkru/new_venv/gpaw/build/lib.linux-x86_64-skylake-3.8/
        _gpaw.cpython-38-x86_64-linux-gnu.so (c1e45bfab3)
ase:    /home/niflheim/madkru/new_venv/ase/ase (version 3.23.0b1-ca38c75a67)
numpy:  /home/modules/software/SciPy-bundle/2020.11-foss-2020b/lib/python3.8/site-packages/numpy (version 1.19.4)
scipy:  /home/modules/software/SciPy-bundle/2020.11-foss-2020b/lib/python3.8/site-packages/scipy (version 1.5.4)
units:  Angstrom and eV
cores: 40
OpenMP: False
OMP_NUM_THREADS: 1

Input parameters:
  convergence: {density: 1e-09}
  experimental: {magmoms: [[0. 0. 0.]
 [0. 0. 0.]
 [0. 0. 0.]
 ...
 [0. 0. 0.]
 [0. 0. 0.]
 [0. 0. 0.]],
                 soc: True}
  kpts: [4 4 6]
  maxiter: 5000
  mixer: {backend: pulay,
          beta: 0.05,
          method: difference,
          nmaxold: 3,
          weight: 100}
  mode: {ecut: 600.0,
         gammacentered: False,
         name: pw}
  occupations: {fixmagmom: False,
                name: fermi-dirac,
                width: 0.001}
  symmetry: off

System changes: positions, numbers, cell, pbc, initial_charges, initial_magmoms

Initialize ...

O-setup:
  name: Oxygen
  id: 9b9d51c344dea68c822856295a461509
  Z: 8.0
  valence: 6
  core: 2
  charge: 0.0
  file: /home/modules/software/GPAW-setups/0.9.20000/O.LDA.gz
  compensation charges: gauss, rc=0.21, lmax=2
  cutoffs: 1.17(filt), 0.83(core),
  valence states:
                energy  radius
    2s(2.00)   -23.752   0.688
    2p(4.00)    -9.195   0.598
    *s           3.459   0.688
    *p          18.016   0.598
    *d           0.000   0.619

  Using partial waves for O as LCAO basis

Mn-setup:
  name: Manganese
  id: 0d715a8018be061a6e9ea6f2d364ac92
  Z: 25.0
  valence: 15
  core: 10
  charge: 0.0
  file: /home/modules/software/GPAW-setups/0.9.20000/Mn.LDA.gz
  compensation charges: gauss, rc=0.38, lmax=2
  cutoffs: 2.14(filt), 0.86(core),
  valence states:
                energy  radius
    3s(2.00)   -85.387   1.275
    4s(2.00)    -5.282   1.275
    3p(6.00)   -54.493   1.281
    4p(0.00)    -1.471   1.281
    3d(5.00)    -7.009   1.138
    *d          20.203   1.138

[...]

P-setup:
  name: Phosphorus
  id: a5561c299094968922a179ab894d2e2d
  Z: 15.0
  valence: 5
  core: 10
  charge: 0.0
  file: /home/modules/software/GPAW-setups/0.9.20000/P.LDA.gz
  compensation charges: gauss, rc=0.30, lmax=2
  cutoffs: 1.69(filt), 1.81(core),
  valence states:
                energy  radius
    3s(2.00)   -14.015   0.953
    3p(3.00)    -5.596   0.953
    *s          13.197   0.953
    *p          21.615   0.953
    *d           0.000   0.953

[...]

Li-setup:
  name: Lithium
  id: b73562207f97a71b6967473b66fe8b65
  Z: 3.0
  valence: 1
  core: 2
  charge: 0.0
  file: /home/modules/software/GPAW-setups/0.9.20000/Li.LDA.gz
  compensation charges: gauss, rc=0.33, lmax=2
  cutoffs: 1.91(filt), 2.55(core),
  valence states:
                energy  radius
    2s(1.00)    -2.874   1.058
    2p(0.00)    -1.126   1.058
    *s          24.338   1.058

  Using partial waves for Li as LCAO basis

Reference energy: -196157.275402

Non-collinear calculation.
Magnetic moment: (0.000000, 0.000000, 0.000000)

Convergence criteria:
  Maximum total energy change: 0.0005 eV / electron
  Maximum integral of absolute density change: 1e-09 electrons
  Maximum integral of absolute eigenstate change: 4e-08 eV^2
  Maximum number of iterations: 5000

Symmetries present (total): 1

  ( 1  0  0)
  ( 0  1  0)
  ( 0  0  1)

96 k-points: 4 x 4 x 6 Monkhorst-Pack grid
96 k-points in the irreducible part of the Brillouin zone
       k-points in crystal coordinates                weights
   0:    -0.37500000   -0.37500000   -0.41666667          1/96
   1:    -0.37500000   -0.37500000   -0.25000000          1/96
   2:    -0.37500000   -0.37500000   -0.08333333          1/96
   3:    -0.37500000   -0.37500000    0.08333333          1/96
   4:    -0.37500000   -0.37500000    0.25000000          1/96
   5:    -0.37500000   -0.37500000    0.41666667          1/96
   6:    -0.37500000   -0.12500000   -0.41666667          1/96
   7:    -0.37500000   -0.12500000   -0.25000000          1/96
   8:    -0.37500000   -0.12500000   -0.08333333          1/96
   9:    -0.37500000   -0.12500000    0.08333333          1/96
          ...
  95:     0.37500000    0.37500000    0.41666667          1/96

Wave functions: Plane wave expansion
  Cutoff energy: 600.000 eV
  Number of coefficients (min, max): 10065, 10119
  Pulay-stress correction: 0.000000 eV/Ang^3 (de/decut=0.000000)
  Using FFTW library
  ScaLapack parameters: grid=1x1, blocksize=None
  Wavefunction extrapolation:
    Improved wavefunction reuse through dual PAW basis

Occupation numbers: Fermi-Dirac: width=0.0010 eV

Eigensolver
   Davidson(niter=2)

Densities:
  Coarse grid: 60*35*27 grid
  Fine grid: 120*70*54 grid
  Total Charge: 0.000000

Density mixing:
  Method: difference
  Backend: pulay
  Linear mixing parameter: 0.05
  Mixing with 3 old densities
  Damping of long wave oscillations: 100

Hamiltonian:
  XC and Coulomb potentials evaluated on a 120*70*54 grid
  Using the LDA Exchange-Correlation functional
  External potential:
    <gpaw.external.NoExternalPotential object at 0x2ad066c5f1f0>

Total number of cores used: 40
Parallelization over k-points: 40

Number of atoms: 28
Number of atomic orbitals: 148
Number of bands in calculation: 224
Number of valence electrons: 180
Bands to converge: occupied

... initialized

Initializing position-dependent things.

Density initialized from atomic densities
Creating initial wave functions:
  148 bands from LCAO basis set
  76 bands from random numbers

    /|             P  O        |
   / |   O      O            Li|
  /  |            Li Mn      O |
 *   |PO    O           Mn Li  |
 |   | O        Li       O     |
 |   .--Mn----------O---O-P----.
 | O/      MO                 /
 | /            O      O     /
 |/       O  P              /

Positions:
   0 O      3.503985    0.290334    1.019535    ( 0.0000,  0.0000,  0.0000)
   1 O      1.728240    5.809889    3.388976    ( 0.0000,  0.0000,  0.0000)
   2 O      6.966348    3.341091    3.761346    ( 0.0000,  0.0000,  0.0000)
   3 O      8.719826    2.759349    1.392790    ( 0.0000,  0.0000,  0.0000)
   4 O      6.966701    5.808025    3.761396    ( 0.0000,  0.0000, -3.0000)
   5 O      8.719471    0.291533    1.392845    ( 0.0000,  0.0000,  3.0000)
   6 O      3.504197    2.760269    1.019635    ( 0.0000,  0.0000,  3.0000)
   7 O      1.728036    3.339503    3.389076    ( 0.0000,  0.0000, -3.0000)
   8 O      0.440795    1.525189    1.421355    ( 0.0000,  0.0000,  0.0000)
   9 O      4.785313    4.574811    3.789206    ( 0.0000,  0.0000,  0.0000)
  10 O     10.014475    4.574878    3.347825    ( 0.0000,  0.0000,  0.0000)
  11 O      5.677744    1.525115    0.978040    ( 0.0000,  0.0000,  0.0000)
  12 Mn     2.287782    1.524913    2.424159    ( 0.0000,  0.0000,  0.0000)
  13 Mn     2.943510    4.575084    0.055265    ( 5.0000,  0.0000,  0.0000)
  14 Mn     8.173550    4.575230    2.269089    (-5.0000,  0.0000,  0.0000)
  15 Mn     7.515902    1.524767    4.636959    (-5.0000,  0.0000,  0.0000)
  16 P      4.240387    1.525278    0.378409    ( 5.0000,  0.0000,  0.0000)
  17 P      0.991833    4.574717    2.748398    ( 0.0000,  0.0000,  0.0000)
  18 P      6.221780    4.574628    4.373037    ( 0.0000,  0.0000,  0.0000)
  19 P      9.463079    1.525370    2.004050    ( 0.0000,  0.0000,  0.0000)
  20 O      4.207233    1.525298    3.590330    ( 0.0000,  0.0000,  0.0000)
  21 O      1.025197    4.574696    1.220150    ( 0.0000,  0.0000,  0.0000)
  22 O      6.242257    4.574710    1.178417    ( 0.0000,  0.0000,  0.0000)
  23 O      9.444258    1.525290    3.549596    ( 0.0000,  0.0000,  0.0000)
  24 Li    -0.000197    0.016362   -0.051809    ( 0.0000,  0.0000,  0.0000)
  25 Li     5.234265   -0.015888    2.316635    ( 0.0000,  0.0000,  0.0000)
  26 Li    -0.000308    3.033923   -0.051521    ( 0.0000,  0.0000,  0.0000)
  27 Li     5.234344    3.065633    2.316894    ( 0.0000,  0.0000,  0.0000)

Unit cell:
           periodic     x           y           z      points  spacing
  1. axis:    yes   10.460000    0.000000    0.000000    60     0.1743
  2. axis:    yes    0.000000    6.100000    0.000000    35     0.1743
  3. axis:    yes    0.000000    0.000000    4.740000    27     0.1756

  Lengths:  10.460000   6.100000   4.740000
  Angles:   90.000000  90.000000  90.000000

Effective grid spacing dv^(1/3) = 0.1747

                     log10-error:    total        iterations:
           time      wfs    density  energy       poisson
iter:   1  13:06:26                -258.438690            -1.0,+0.0,-0.0
iter:   2  13:07:01  -0.42  -0.89  -266.627649            +0.8,-0.0,+0.2
iter:   3  13:07:35  -0.87  -0.94  -254.723735            +0.0,-0.0,-0.0
iter:   4  13:08:10  -0.62  -0.97  -235.985558            -0.0,+0.0,-0.0
iter:   5  13:08:44  -0.41  -1.09  -232.948675            -0.0,+0.0,-0.0
iter:   6  13:09:19  -1.59  -1.25  -222.114831            -0.0,+0.0,-0.0
iter:   7  13:09:53  -2.40  -1.35  -222.223871            -0.0,+0.0,-0.0
iter:   8  13:10:28  -3.07  -1.35  -222.068044            -0.2,-0.0,-0.0
iter:   9  13:11:02  -2.39  -1.38  -222.318971            -0.6,-0.0,-0.1
iter:  10  13:11:37  -2.02  -1.41  -221.993353            -0.6,-0.0,-0.1
iter:  11  13:12:11  -2.91  -1.55  -222.767468            -1.5,-0.0,-0.2
iter:  12  13:12:46  -2.43  -1.57  -223.585996            -1.9,-0.1,-0.2
iter:  13  13:13:20  -2.68  -1.60  -223.586526            -1.9,-0.1,-0.3
iter:  14  13:13:55  -2.49  -1.68  -225.123888            -1.4,-0.1,-0.3
iter:  15  13:14:29  -2.85  -1.69  -226.099399            -1.3,-0.2,-0.4
iter:  16  13:15:04  -1.93  -1.70  -226.509144            -0.3,-0.2,-0.5
iter:  17  13:15:38  -2.55  -1.85  -226.445095            -0.1,-0.2,-0.5
iter:  18  13:16:13  -2.07  -1.93  -226.334373            +0.0,-0.2,-0.5
iter:  19  13:16:47  -2.88  -2.12  -226.327520            +0.0,-0.2,-0.5
iter:  20  13:17:21  -3.42  -2.32  -226.289632            -0.0,-0.2,-0.5
iter:  21  13:17:56  -3.49  -2.36  -226.261452            +0.0,-0.2,-0.5
iter:  22  13:18:30  -3.54  -2.42  -226.248989            +0.0,-0.2,-0.4
iter:  23  13:19:05  -4.26  -2.46  -226.249758            +0.0,-0.2,-0.4
iter:  24  13:19:39  -3.31  -2.47  -226.264598            +0.0,-0.2,-0.4
iter:  25  13:20:14  -4.51  -2.63  -226.263677            +0.0,-0.2,-0.4
iter:  26  13:20:48  -3.58  -2.68  -226.251645            +0.0,-0.2,-0.4
iter:  27  13:21:23  -4.55  -2.85  -226.251593            +0.0,-0.2,-0.4
iter:  28  13:21:58  -4.13  -2.89  -226.250577            +0.0,-0.2,-0.4
iter:  29  13:22:32  -4.79  -3.22  -226.248894            +0.0,-0.2,-0.4
iter:  30  13:23:06  -4.89  -3.38  -226.248494            +0.0,-0.2,-0.4
iter:  31  13:23:41  -5.56  -3.45  -226.248472            +0.0,-0.2,-0.4
iter:  32  13:24:15  -5.71  -3.50  -226.248465            +0.0,-0.2,-0.4
iter:  33  13:24:50  -5.70  -3.52  -226.248262            +0.0,-0.1,-0.3
iter:  34  13:25:24  -5.84  -3.87  -226.248262            +0.0,-0.1,-0.3
iter:  35  13:25:59  -6.61  -3.98  -226.248242            +0.0,-0.1,-0.3
iter:  36  13:26:33  -6.13  -4.01  -226.248249            +0.0,-0.1,-0.3
iter:  37  13:27:08  -5.43  -4.07  -226.248285            +0.0,-0.1,-0.1
iter:  38  13:27:42  -6.59  -4.10  -226.248283            +0.0,-0.1,-0.1
iter:  39  13:28:17  -7.27  -4.20  -226.248291            +0.0,-0.1,-0.1
iter:  40  13:28:51  -7.30  -4.24  -226.248289            +0.0,-0.1,-0.1
iter:  41  13:29:26  -7.19  -4.47  -226.248293            +0.0,-0.1,-0.1
iter:  42  13:30:00  -6.63  -4.55  -226.248298            +0.0,-0.1,-0.1
iter:  43  13:30:35  -6.29  -4.61  -226.248303            +0.0,-0.1,-0.1
iter:  44  13:31:09  -6.13  -4.67  -226.248305            +0.0,-0.1,-0.0
iter:  45  13:31:43  -6.91  -4.88  -226.248304            +0.0,-0.0,-0.0
iter:  46  13:32:18  -7.64  -4.92  -226.248308            +0.0,-0.0,-0.0
iter:  47  13:32:52  -8.40  -5.22  -226.248309            +0.0,-0.0,-0.0
iter:  48  13:33:27  -8.34  -5.33  -226.248309            +0.0,-0.0,-0.0
iter:  49  13:34:02  -7.96  -5.36  -226.248309            +0.0,-0.0,-0.0
iter:  50  13:34:36  -7.87  -5.43  -226.248309            +0.0,-0.0,-0.0
iter:  51  13:35:10  -7.76  -5.54  -226.248309            +0.0,-0.0,-0.0
iter:  52  13:35:45  -7.80  -5.69  -226.248309            +0.0,-0.0,+0.0
iter:  53  13:36:19  -7.96  -5.73  -226.248308            +0.0,-0.0,+0.0
iter:  54  13:36:54  -8.70  -5.73  -226.248309            +0.0,-0.0,+0.0
iter:  55  13:37:28  -8.65  -5.80  -226.248309            -0.0,-0.0,+0.0
iter:  56  13:38:02  -7.20  -5.93  -226.248308            -0.0,-0.0,+0.0
iter:  57  13:38:36  -8.40  -5.96  -226.248308            -0.0,-0.0,+0.0
iter:  58  13:39:11  -9.47  -6.11  -226.248308            -0.0,-0.0,+0.0
iter:  59  13:39:45  -8.49  -6.27  -226.248309            -0.0,-0.0,+0.0
iter:  60  13:40:19  -9.00  -6.34  -226.248308            -0.0,-0.0,+0.0
[...]
iter: 328  16:12:36 -11.36  -8.40  -226.248322            +0.0,+0.0,+0.0
iter: 329  16:13:10 -10.34  -8.97  -226.248322            +0.0,+0.0,+0.0
iter: 330  16:13:44 -11.29  -8.79  -226.248322            +0.0,+0.0,+0.0
iter: 331  16:14:18  -9.99  -8.62  -226.248322            +0.0,+0.0,+0.0
iter: 332  16:14:52 -10.63  -8.39  -226.248322            +0.0,+0.0,+0.0
iter: 333  16:15:25 -11.43  -8.24  -226.248323            +0.0,+0.0,+0.0
iter: 334  16:15:59 -11.03  -8.27  -226.248323            +0.0,+0.0,+0.0
iter: 335  16:16:33 -11.36  -7.62  -226.248323            +0.0,+0.0,+0.0
iter: 336  16:17:07 -11.69  -8.66  -226.248323            +0.0,+0.0,+0.0
iter: 337  16:17:41 -10.46  -8.59  -226.248323            +0.0,+0.0,+0.0
iter: 338  16:18:15 -11.06  -8.76  -226.248323            +0.0,+0.0,+0.0
iter: 339  16:18:49 -11.82  -8.64  -226.248323            +0.0,+0.0,+0.0
iter: 340  16:19:22 -11.59  -8.20  -226.248323            +0.0,+0.0,+0.0
iter: 341  16:19:56 -10.77  -8.87  -226.248323            +0.0,+0.0,+0.0
iter: 342  16:20:30 -10.35  -9.04  -226.248323            +0.0,-0.0,+0.0

Converged after 342 iterations.

Dipole moment: (-0.161222, -0.007216, 1.631289) |e|*Ang

Total magnetic moment: (0.000385, -0.000030, 0.003229)
Local magnetic moments:
   0 O  (-0.001561, -0.000071,  0.000199)
   1 O  ( 0.001576,  0.000070,  0.000264)
   2 O  (-0.002547, -0.000090, -0.000236)
   3 O  ( 0.002561,  0.000103, -0.000138)
   4 O  (-0.002522,  0.000085, -0.000235)
   5 O  ( 0.002536, -0.000098, -0.000138)
   6 O  (-0.001547,  0.000067,  0.000201)
   7 O  ( 0.001562, -0.000066,  0.000265)
   8 O  (-0.028683, -0.000055, -0.000533)
   9 O  ( 0.028800,  0.000055,  0.000796)
  10 O  ( 0.028620,  0.000041,  0.000512)
  11 O  (-0.028603, -0.000041, -0.000720)
  12 Mn (-4.445514, -0.008506, -0.087081)
  13 Mn ( 4.444802,  0.008502,  0.119583)
  14 Mn ( 4.446056,  0.006338,  0.080244)
  15 Mn (-4.445154, -0.006362, -0.109906)
  16 P  (-0.002241, -0.000002,  0.000099)
  17 P  ( 0.002242,  0.000002,  0.000184)
  18 P  ( 0.000900,  0.000004, -0.000117)
  19 P  (-0.000840, -0.000004, -0.000179)
  20 O  (-0.024683, -0.000047, -0.000662)
  21 O  ( 0.024653,  0.000047,  0.000493)
  22 O  ( 0.025810,  0.000037,  0.000606)
  23 O  (-0.025902, -0.000037, -0.000494)
  24 Li ( 0.000051, -0.000002,  0.000001)
  25 Li (-0.000058,  0.000002, -0.000001)
  26 Li ( 0.000051,  0.000002,  0.000001)
  27 Li (-0.000058, -0.000002, -0.000001)

Energy contributions relative to reference atoms: (reference = -196157.275402)

Kinetic:       +217.423882
Potential:     -195.305471
External:        +0.000000
XC:            -250.407778
Entropy (-ST):   -0.000000
Local:           +2.041045
Free energy:   -226.248323
Extrapolated:  -226.248323

Showing only first 2 kpts
 Kpt  Band  Eigenvalues  Occupancy
  0    88     -2.04354    1.00000
  0    89     -2.03117    1.00000
  0    90     -1.95000    1.00000
  0    91     -1.93945    1.00000

  1    88     -2.16891    1.00000
  1    89     -2.15852    1.00000
  1    90     -2.11356    1.00000
  1    91     -2.09054    1.00000

Fermi level: 6.19876

Gap: 1.965 eV
Transition (v -> c):
  (s=0, k=51, n=179, [0.12, -0.38, 0.08]) -> (s=0, k=63, n=180, [0.12, 0.12, 0.08])

Forces in eV/Ang:
  0 O     0.02330    0.00636   -0.12615
  1 O    -0.02769   -0.00646   -0.12628
  2 O     0.02217   -0.00278   -0.11345
  3 O    -0.02695    0.00291   -0.11504
  4 O     0.02223    0.00280   -0.11342
  5 O    -0.02702   -0.00293   -0.11502
  6 O     0.02328   -0.00628   -0.12606
  7 O    -0.02769    0.00638   -0.12619
  8 O     0.00091   -0.00001   -0.10782
  9 O    -0.00543    0.00000   -0.10620
 10 O     0.00332    0.00000   -0.11809
 11 O    -0.00677    0.00000   -0.11766
 12 Mn   -0.00393   -0.00002    0.17789
 13 Mn   -0.00163    0.00002    0.17877
 14 Mn    0.00280    0.00003    0.17027
 15 Mn   -0.00873   -0.00003    0.17093
 16 P    -0.02084   -0.00003    0.27942
 17 P     0.01612    0.00002    0.27884
 18 P     0.03947   -0.00003    0.25336
 19 P     0.01813    0.00004    0.25318
 20 O    -0.02187    0.00001   -0.19581
 21 O     0.01793   -0.00001   -0.19634
 22 O    -0.01381   -0.00003   -0.19553
 23 O     0.01094    0.00003   -0.19512
 24 Li   -0.00343    0.00494    0.10728
 25 Li   -0.00068   -0.00485    0.10837
 26 Li   -0.00342   -0.00494    0.10726
 27 Li   -0.00067    0.00482    0.10837