User:   madkru@i018.nifl.fysik.dtu.dk
Date:   Thu Mar 25 01:17:08 2021
Arch:   x86_64
Pid:    26873
Python: 3.7.4
gpaw:   /home/niflheim/madkru/venv_folder/gpaw/gpaw (d224efde0f)
_gpaw:  /home/niflheim/madkru/venv_folder/gpaw/build/lib.linux-x86_64-ivybridge-3.7/
        _gpaw.cpython-37m-x86_64-linux-gnu.so (4fd39e8b1e)
ase:    /home/niflheim/madkru/venv_folder/ase/ase (version 3.21.0b1-4d5a73cb29)
numpy:  /home/niflheim/madkru/venv_folder/lib/python3.7/site-packages/numpy (version 1.19.4)
scipy:  /home/niflheim/madkru/venv_folder/lib/python3.7/site-packages/scipy (version 1.5.4)
units:  Angstrom and eV
cores: 64
OMP_NUM_THREADS: 1

Input parameters:
  convergence: {bands: occupied,
                density: 0.0001,
                eigenstates: 4e-08,
                energy: 0.0005,
                forces: 1e-06}
  kpts: [6 6 4]
  mode: {ecut: 600.0,
         gammacentered: False,
         name: pw}
  occupations: {fixmagmom: False,
                name: fermi-dirac,
                width: 0.001}
  setups: {Mn: :d,3.0}
  symmetry: {point_group: False,
             time_reversal: False}

System changes: positions, numbers, cell, pbc, initial_charges, initial_magmoms

Initialize ...

O-setup:
  name: Oxygen
  id: 9b9d51c344dea68c822856295a461509
  Z: 8.0
  valence: 6
  core: 2
  charge: 0.0
  file: /home/modules/software/GPAW-setups/0.9.20000/O.LDA.gz
  compensation charges: gauss, rc=0.21, lmax=2
  cutoffs: 1.17(filt), 0.83(core),
  valence states:
                energy  radius
    2s(2.00)   -23.752   0.688
    2p(4.00)    -9.195   0.598
    *s           3.459   0.688
    *p          18.016   0.598
    *d           0.000   0.619

  Using partial waves for O as LCAO basis

Mn-setup:
  name: Manganese
  id: 0d715a8018be061a6e9ea6f2d364ac92
  Z: 25.0
  valence: 15
  core: 10
  charge: 0.0
  Hubbard U: 3.000000 eV (l=2, scale=True)
  file: /home/modules/software/GPAW-setups/0.9.20000/Mn.LDA.gz
  compensation charges: gauss, rc=0.38, lmax=2
  cutoffs: 2.14(filt), 0.86(core),
  valence states:
                energy  radius
    3s(2.00)   -85.387   1.275
    4s(2.00)    -5.282   1.275
    3p(6.00)   -54.493   1.281
    4p(0.00)    -1.471   1.281
    3d(5.00)    -7.009   1.138
    *d          20.203   1.138

[...]

P-setup:
  name: Phosphorus
  id: a5561c299094968922a179ab894d2e2d
  Z: 15.0
  valence: 5
  core: 10
  charge: 0.0
  file: /home/modules/software/GPAW-setups/0.9.20000/P.LDA.gz
  compensation charges: gauss, rc=0.30, lmax=2
  cutoffs: 1.69(filt), 1.81(core),
  valence states:
                energy  radius
    3s(2.00)   -14.015   0.953
    3p(3.00)    -5.596   0.953
    *s          13.197   0.953
    *p          21.615   0.953
    *d           0.000   0.953

[...]

Li-setup:
  name: Lithium
  id: b73562207f97a71b6967473b66fe8b65
  Z: 3.0
  valence: 1
  core: 2
  charge: 0.0
  file: /home/modules/software/GPAW-setups/0.9.20000/Li.LDA.gz
  compensation charges: gauss, rc=0.33, lmax=2
  cutoffs: 1.91(filt), 2.55(core),
  valence states:
                energy  radius
    2s(1.00)    -2.874   1.058
    2p(0.00)    -1.126   1.058
    *s          24.338   1.058

  Using partial waves for Li as LCAO basis

Reference energy: -196157.275402

Spin-polarized calculation.
Magnetic moment: 0.000000

Convergence criteria:
  Maximum total energy change: 0.0005 eV / electron
  Maximum integral of absolute density change: 0.0001 electrons
  Maximum integral of absolute eigenstate change: 4e-08 eV^2
  Maximum change in atomic force: 1e-06 eV / Ang
  Maximum number of iterations: 333

Symmetries present (total): 1

  ( 1  0  0)
  ( 0  1  0)
  ( 0  0  1)

144 k-points: 6 x 6 x 4 Monkhorst-Pack grid
144 k-points in the irreducible part of the Brillouin zone
       k-points in crystal coordinates                weights
   0:    -0.41666667   -0.41666667   -0.37500000          1/144
   1:    -0.41666667   -0.41666667   -0.12500000          1/144
   2:    -0.41666667   -0.41666667    0.12500000          1/144
   3:    -0.41666667   -0.41666667    0.37500000          1/144
   4:    -0.41666667   -0.25000000   -0.37500000          1/144
   5:    -0.41666667   -0.25000000   -0.12500000          1/144
   6:    -0.41666667   -0.25000000    0.12500000          1/144
   7:    -0.41666667   -0.25000000    0.37500000          1/144
   8:    -0.41666667   -0.08333333   -0.37500000          1/144
   9:    -0.41666667   -0.08333333   -0.12500000          1/144
          ...
 143:     0.41666667    0.41666667    0.37500000          1/144

Wave functions: Plane wave expansion
  Cutoff energy: 600.000 eV
  Number of coefficients (min, max): 9238, 9284
  Pulay-stress correction: 0.000000 eV/Ang^3 (de/decut=0.000000)
  Using FFTW library
  ScaLapack parameters: grid=1x1, blocksize=None
  Wavefunction extrapolation:
    Improved wavefunction reuse through dual PAW basis

  Fermi-Dirac: width=0.0010 eV

Eigensolver
   Davidson(niter=2, smin=None, normalize=True)

Densities:
  Coarse grid: 60*35*27 grid
  Fine grid: 120*70*54 grid
  Total Charge: 0.000000

Density mixing:
  Method: difference
  Backend: pulay
  Linear mixing parameter: 0.05
  Mixing with 5 old densities
  Damping of long wave oscillations: 50

Hamiltonian:
  XC and Coulomb potentials evaluated on a 120*70*54 grid
  Using the LDA Exchange-Correlation functional

Total number of cores used: 64
Parallelization over k-points: 16
Domain decomposition: 2 x 2 x 1

Number of atoms: 28
Number of atomic orbitals: 148
Number of bands in calculation: 112
Number of valence electrons: 180
Bands to converge: occupied

... initialized

Initializing position-dependent things.

Density initialized from atomic densities
Creating initial wave functions:
  112 bands from LCAO basis set

               O     O  P  O
            PO           OMn     O
                  O          MO
            O        Li O
             Mn  On          OP
         O         Li O
         Li     O P         O
       Li

Positions:
   0 O     -1.263197   -2.497779   -1.098475    ( 0.0000,  0.0000,  0.0000)
   1 O     -3.070823    2.922496    1.209491    ( 0.0000,  0.0000,  0.0000)
   2 O      1.985541    0.474863    1.428016    ( 0.0000,  0.0000,  0.0000)
   3 O      3.793120   -0.050100   -0.879950    ( 0.0000,  0.0000,  0.0000)
   4 O      1.985518    2.922485    1.428149    ( 0.0000,  0.0000,  0.0000)
   5 O      3.793144   -2.497790   -0.879818    ( 0.0000,  0.0000,  0.0000)
   6 O     -1.263220   -0.050157   -1.098342    ( 0.0000,  0.0000,  0.0000)
   7 O     -3.070798    0.474805    1.209623    ( 0.0000,  0.0000,  0.0000)
   8 O     -4.167835   -1.273920   -0.862116    ( 0.0000,  0.0000,  0.0000)
   9 O     -0.166037    1.698602    1.445528    ( 0.0000,  0.0000,  0.0000)
  10 O      4.890156    1.698625    1.191790    ( 0.0000,  0.0000,  0.0000)
  11 O      0.888358   -1.273896   -1.115855    ( 0.0000,  0.0000,  0.0000)
  12 Mn    -2.445557   -1.274211    0.312921    ( 0.0000,  0.0000,  1.0000)
  13 Mn    -1.888303    1.698892   -1.994948    ( 0.0000,  0.0000, -1.0000)
  14 Mn     3.167879    1.698917    0.016752    ( 0.0000,  0.0000, -1.0000)
  15 Mn     2.610624   -1.274187    2.324621    ( 0.0000,  0.0000,  1.0000)
  16 P     -0.529549   -1.273917   -1.724376    ( 0.0000,  0.0000,  0.0000)
  17 P     -3.804359    1.698599    0.583463    ( 0.0000,  0.0000,  0.0000)
  18 P      1.251870    1.698623    2.054050    ( 0.0000,  0.0000,  0.0000)
  19 P      4.526680   -1.273894   -0.253789    ( 0.0000,  0.0000,  0.0000)
  20 O     -0.544227   -1.273926    1.365380    ( 0.0000,  0.0000,  0.0000)
  21 O     -3.789411    1.698610   -0.942222    ( 0.0000,  0.0000,  0.0000)
  22 O      1.266548    1.698631   -1.035707    ( 0.0000,  0.0000,  0.0000)
  23 O      4.511733   -1.273905    1.271895    ( 0.0000,  0.0000,  0.0000)
  24 Li    -4.705087   -2.760584   -2.142877    ( 0.0000,  0.0000,  0.0000)
  25 Li     0.361147   -2.760561    0.164836    ( 0.0000,  0.0000,  0.0000)
  26 Li    -4.695074    0.212330   -2.142877    ( 0.0000,  0.0000,  0.0000)
  27 Li     0.361161    0.212353    0.164837    ( 0.0000,  0.0000,  0.0000)

Unit cell:
           periodic     x           y           z      points  spacing
  1. axis:    yes   10.112485    0.000045   -0.000035    60     0.1685
  2. axis:    yes    0.000026    5.945827    0.000001    35     0.1699
  3. axis:    yes   -0.000016    0.000000    4.615463    27     0.1709

  Lengths:  10.112485   5.945827   4.615463
  Angles:   89.999989  90.000396  89.999490

Effective grid spacing dv^(1/3) = 0.1698

                     log10-error:           total        iterations:
           time      wfs    density  force  energy       poisson  magmom
iter:   1  01:18:43                       -221.376826             +0.0000
iter:   2  01:19:03  -0.61  -0.93         -234.836128             +0.0000
iter:   3  01:19:23  -0.37  -0.97         -225.912160             -0.0000
iter:   4  01:19:43  -1.39  -1.29         -225.761721             +0.0000
iter:   5  01:20:02  -1.27  -1.39         -227.330029             +0.0000
iter:   6  01:20:22  -1.46  -1.46         -225.737523             +0.0000
iter:   7  01:20:42  -2.47  -2.04         -225.724946             +0.0000
iter:   8  01:21:02  -2.14  -1.99         -225.590612             +0.0000
iter:   9  01:21:22  -2.46  -2.09         -225.432566             +0.0000
iter:  10  01:21:41  -3.31  -2.55         -225.422625             +0.0000
iter:  11  01:22:01  -3.65  -2.81         -225.412197             +0.0000
iter:  12  01:22:21  -4.12  -3.05         -225.411093             +0.0000
iter:  13  01:22:41  -5.11  -3.29         -225.410973             -0.0000
iter:  14  01:23:01  -5.39  -3.32         -225.410799             -0.0000
iter:  15  01:23:20  -6.04  -3.43         -225.410806             -0.0000
iter:  16  01:23:40  -5.24  -3.47         -225.411147             +0.0000
iter:  17  01:24:00  -5.86  -3.58         -225.411033             -0.0000
iter:  18  01:24:20  -5.21  -3.70         -225.410749             +0.0000
iter:  19  01:24:40  -6.10  -4.14         -225.410752             +0.0000
iter:  20  01:24:59  -7.28  -4.54         -225.410754             -0.0000
iter:  21  01:25:24  -8.08  -4.57         -225.410754             -0.0000
iter:  22  01:25:48  -7.85  -4.63    -2.34-225.410754             +0.0000
iter:  23  01:26:13  -8.16  -4.89    -2.68-225.410753             +0.0000
iter:  24  01:26:37  -8.79  -5.14    -3.06-225.410753             +0.0000
iter:  25  01:27:02  -9.27  -5.22    -3.36-225.410753             +0.0000
iter:  26  01:27:26  -9.12  -5.34    -3.22-225.410753             +0.0000
iter:  27  01:27:51  -9.42  -5.53    -3.39-225.410753             +0.0000
iter:  28  01:28:16 -10.00  -5.58    -3.93-225.410753             +0.0000
iter:  29  01:28:40  -9.87  -5.61    -3.52-225.410753             +0.0000
iter:  30  01:29:04 -10.46  -5.71    -3.73-225.410753             +0.0000
iter:  31  01:29:29 -10.10  -5.74    -4.34-225.410753             +0.0000
iter:  32  01:29:54  -9.55  -5.81    -3.61-225.410753             +0.0000
iter:  33  01:30:18 -10.24  -5.98    -3.79-225.410753             +0.0000
iter:  34  01:30:43 -10.94  -6.01    -4.54-225.410753             +0.0000
iter:  35  01:31:07 -10.80  -6.03    -3.99-225.410753             +0.0000
iter:  36  01:31:31 -10.40  -6.14    -4.06-225.410753             -0.0000
iter:  37  01:31:56 -10.50  -6.13    -4.02-225.410753             -0.0000
iter:  38  01:32:21 -11.73  -6.27    -4.53-225.410753             -0.0000
iter:  39  01:32:45 -10.60  -6.30    -4.01-225.410753             -0.0000
iter:  40  01:33:10 -11.42  -6.45    -4.51-225.410753             -0.0000
iter:  41  01:33:34 -11.54  -6.54    -4.84-225.410753             -0.0000
iter:  42  01:33:59 -12.28  -6.59    -4.72-225.410753             -0.0000
iter:  43  01:34:23 -11.27  -6.67    -4.38-225.410753             -0.0000
iter:  44  01:34:48 -12.54  -6.89    -5.28-225.410753             -0.0000
iter:  45  01:35:12 -12.28  -6.95    -4.93-225.410753             +0.0000
iter:  46  01:35:37 -13.07  -7.04    -5.42-225.410753             -0.0000
iter:  47  01:36:01 -12.73  -7.10    -5.18-225.410753             -0.0000
iter:  48  01:36:26 -13.42  -7.27    -5.67-225.410753             -0.0000
iter:  49  01:36:50 -12.46  -7.30    -5.04-225.410753             -0.0000
iter:  50  01:37:15 -12.90  -7.43    -5.36-225.410753             +0.0000
iter:  51  01:37:39 -13.90  -7.89    -6.29-225.410753             +0.0000

Converged after 51 iterations.

Dipole moment: (19.049552, -1.426106, -4.182881) |e|*Ang

Total magnetic moment: (0.000000, 0.000000, 0.000000)
Local magnetic moments:
   0 O  ( 0.000000,  0.000000,  0.000666)
   1 O  ( 0.000000,  0.000000, -0.000655)
   2 O  ( 0.000000,  0.000000, -0.000659)
   3 O  ( 0.000000,  0.000000,  0.000671)
   4 O  ( 0.000000,  0.000000, -0.000662)
   5 O  ( 0.000000,  0.000000,  0.000690)
   6 O  ( 0.000000,  0.000000,  0.000661)
   7 O  ( 0.000000,  0.000000, -0.000665)
   8 O  ( 0.000000,  0.000000,  0.022338)
   9 O  ( 0.000000,  0.000000, -0.022343)
  10 O  ( 0.000000,  0.000000, -0.022398)
  11 O  ( 0.000000,  0.000000,  0.022392)
  12 Mn ( 0.000000,  0.000000,  4.575097)
  13 Mn ( 0.000000,  0.000000, -4.575076)
  14 Mn ( 0.000000,  0.000000, -4.575034)
  15 Mn ( 0.000000,  0.000000,  4.574993)
  16 P  ( 0.000000,  0.000000,  0.000808)
  17 P  ( 0.000000,  0.000000, -0.000808)
  18 P  ( 0.000000,  0.000000, -0.000816)
  19 P  ( 0.000000,  0.000000,  0.000825)
  20 O  ( 0.000000,  0.000000,  0.020703)
  21 O  ( 0.000000,  0.000000, -0.020697)
  22 O  ( 0.000000,  0.000000, -0.020715)
  23 O  ( 0.000000,  0.000000,  0.020720)
  24 Li ( 0.000000,  0.000000, -0.000023)
  25 Li ( 0.000000,  0.000000, -0.000000)
  26 Li ( 0.000000,  0.000000,  0.000000)
  27 Li ( 0.000000,  0.000000, -0.000000)

Energy contributions relative to reference atoms: (reference = -196157.275402)

Kinetic:       +296.839741
Potential:     -256.382518
External:        +0.000000
XC:            -267.648743
Entropy (-ST):   -0.000000
Local:           +1.780768
Free energy:   -225.410753
Extrapolated:  -225.410753

Spin contamination: 9.697234 electrons
Showing only first 2 kpts
                      Up                     Down
 Kpt  Band  Eigenvalues  Occupancy  Eigenvalues  Occupancy
  0    88      5.10902    0.00694      5.10924    0.00694
  0    89      5.16132    0.00694      5.16116    0.00694
  0    90      9.64952    0.00000      9.65378    0.00000
  0    91      9.67399    0.00000      9.66910    0.00000

  1    88      5.12055    0.00694      5.12083    0.00694
  1    89      5.17071    0.00694      5.17044    0.00694
  1    90      9.53076    0.00000      9.53651    0.00000
  1    91      9.54841    0.00000      9.54312    0.00000

Fermi level: 6.36998

Gap: 3.795 eV
Transition (v -> c):
  (s=1, k=51, n=89, [-0.08, -0.42, 0.38]) -> (s=0, k=82, n=90, [0.08, -0.08, 0.12])
Writing to born-0.01-24x-.gpw (mode='all')