User:   madkru@g035.nifl.fysik.dtu.dk
Date:   Tue Mar 23 02:18:51 2021
Arch:   x86_64
Pid:    44316
Python: 3.7.4
gpaw:   /home/niflheim/madkru/venv_folder/gpaw/gpaw (d0d1ca1c71)
_gpaw:  /home/niflheim/madkru/venv_folder/gpaw/build/lib.linux-x86_64-sandybridge-3.7/
        _gpaw.cpython-37m-x86_64-linux-gnu.so (4fd39e8b1e)
ase:    /home/niflheim/madkru/venv_folder/ase/ase (version 3.21.0b1-7e6c206a91)
numpy:  /home/niflheim/madkru/venv_folder/lib/python3.7/site-packages/numpy (version 1.19.4)
scipy:  /home/niflheim/madkru/venv_folder/lib/python3.7/site-packages/scipy (version 1.5.4)
units:  Angstrom and eV
cores: 32
OMP_NUM_THREADS: 1

Input parameters:
  convergence: {bands: occupied,
                density: 0.0001,
                eigenstates: 4e-08,
                energy: 0.0005,
                forces: 1e-06}
  kpts: [6 6 4]
  mode: {ecut: 600.0,
         gammacentered: False,
         name: pw}
  occupations: {fixmagmom: False,
                name: fermi-dirac,
                width: 0.001}
  setups: {Mn: :d,3.0}
  symmetry: {point_group: False,
             time_reversal: False}

System changes: positions, numbers, cell, pbc, initial_charges, initial_magmoms

Initialize ...

O-setup:
  name: Oxygen
  id: 9b9d51c344dea68c822856295a461509
  Z: 8.0
  valence: 6
  core: 2
  charge: 0.0
  file: /home/modules/software/GPAW-setups/0.9.20000/O.LDA.gz
  compensation charges: gauss, rc=0.21, lmax=2
  cutoffs: 1.17(filt), 0.83(core),
  valence states:
                energy  radius
    2s(2.00)   -23.752   0.688
    2p(4.00)    -9.195   0.598
    *s           3.459   0.688
    *p          18.016   0.598
    *d           0.000   0.619

  Using partial waves for O as LCAO basis

Mn-setup:
  name: Manganese
  id: 0d715a8018be061a6e9ea6f2d364ac92
  Z: 25.0
  valence: 15
  core: 10
  charge: 0.0
  Hubbard U: 3.000000 eV (l=2, scale=True)
  file: /home/modules/software/GPAW-setups/0.9.20000/Mn.LDA.gz
  compensation charges: gauss, rc=0.38, lmax=2
  cutoffs: 2.14(filt), 0.86(core),
  valence states:
                energy  radius
    3s(2.00)   -85.387   1.275
    4s(2.00)    -5.282   1.275
    3p(6.00)   -54.493   1.281
    4p(0.00)    -1.471   1.281
    3d(5.00)    -7.009   1.138
    *d          20.203   1.138

[...]

P-setup:
  name: Phosphorus
  id: a5561c299094968922a179ab894d2e2d
  Z: 15.0
  valence: 5
  core: 10
  charge: 0.0
  file: /home/modules/software/GPAW-setups/0.9.20000/P.LDA.gz
  compensation charges: gauss, rc=0.30, lmax=2
  cutoffs: 1.69(filt), 1.81(core),
  valence states:
                energy  radius
    3s(2.00)   -14.015   0.953
    3p(3.00)    -5.596   0.953
    *s          13.197   0.953
    *p          21.615   0.953
    *d           0.000   0.953

[...]

Li-setup:
  name: Lithium
  id: b73562207f97a71b6967473b66fe8b65
  Z: 3.0
  valence: 1
  core: 2
  charge: 0.0
  file: /home/modules/software/GPAW-setups/0.9.20000/Li.LDA.gz
  compensation charges: gauss, rc=0.33, lmax=2
  cutoffs: 1.91(filt), 2.55(core),
  valence states:
                energy  radius
    2s(1.00)    -2.874   1.058
    2p(0.00)    -1.126   1.058
    *s          24.338   1.058

  Using partial waves for Li as LCAO basis

Reference energy: -196157.275402

Spin-polarized calculation.
Magnetic moment: 0.000000

Convergence criteria:
  Maximum total energy change: 0.0005 eV / electron
  Maximum integral of absolute density change: 0.0001 electrons
  Maximum integral of absolute eigenstate change: 4e-08 eV^2
  Maximum change in atomic force: 1e-06 eV / Ang
  Maximum number of iterations: 333

Symmetries present (total): 1

  ( 1  0  0)
  ( 0  1  0)
  ( 0  0  1)

144 k-points: 6 x 6 x 4 Monkhorst-Pack grid
144 k-points in the irreducible part of the Brillouin zone
       k-points in crystal coordinates                weights
   0:    -0.41666667   -0.41666667   -0.37500000          1/144
   1:    -0.41666667   -0.41666667   -0.12500000          1/144
   2:    -0.41666667   -0.41666667    0.12500000          1/144
   3:    -0.41666667   -0.41666667    0.37500000          1/144
   4:    -0.41666667   -0.25000000   -0.37500000          1/144
   5:    -0.41666667   -0.25000000   -0.12500000          1/144
   6:    -0.41666667   -0.25000000    0.12500000          1/144
   7:    -0.41666667   -0.25000000    0.37500000          1/144
   8:    -0.41666667   -0.08333333   -0.37500000          1/144
   9:    -0.41666667   -0.08333333   -0.12500000          1/144
          ...
 143:     0.41666667    0.41666667    0.37500000          1/144

Wave functions: Plane wave expansion
  Cutoff energy: 600.000 eV
  Number of coefficients (min, max): 9238, 9284
  Pulay-stress correction: 0.000000 eV/Ang^3 (de/decut=0.000000)
  Using FFTW library
  ScaLapack parameters: grid=1x1, blocksize=None
  Wavefunction extrapolation:
    Improved wavefunction reuse through dual PAW basis

  Fermi-Dirac: width=0.0010 eV

Eigensolver
   Davidson(niter=2, smin=None, normalize=True)

Densities:
  Coarse grid: 60*35*27 grid
  Fine grid: 120*70*54 grid
  Total Charge: 0.000000

Density mixing:
  Method: difference
  Backend: pulay
  Linear mixing parameter: 0.05
  Mixing with 5 old densities
  Damping of long wave oscillations: 50

Hamiltonian:
  XC and Coulomb potentials evaluated on a 120*70*54 grid
  Using the LDA Exchange-Correlation functional

Total number of cores used: 32
Parallelization over k-points: 16
Domain decomposition: 2 x 1 x 1

Number of atoms: 28
Number of atomic orbitals: 148
Number of bands in calculation: 112
Number of valence electrons: 180
Bands to converge: occupied

... initialized

Initializing position-dependent things.

Density initialized from atomic densities
Creating initial wave functions:
  112 bands from LCAO basis set

               O     O  P  O
            PO           OMn     O
                  O          MO
            O        Li O
             Mn  On          OP
         O         Li O
         Li     O P         O
       Li

Positions:
   0 O     -1.263197   -2.497779   -1.098475    ( 0.0000,  0.0000,  0.0000)
   1 O     -3.070823    2.922496    1.209491    ( 0.0000,  0.0000,  0.0000)
   2 O      1.985541    0.474863    1.428016    ( 0.0000,  0.0000,  0.0000)
   3 O      3.793120   -0.050100   -0.879950    ( 0.0000,  0.0000,  0.0000)
   4 O      1.985518    2.922485    1.428149    ( 0.0000,  0.0000,  0.0000)
   5 O      3.793144   -2.497790   -0.879818    ( 0.0000,  0.0000,  0.0000)
   6 O     -1.263220   -0.050157   -1.098342    ( 0.0000,  0.0000,  0.0000)
   7 O     -3.070798    0.474805    1.209623    ( 0.0000,  0.0000,  0.0000)
   8 O     -4.167835   -1.273920   -0.862116    ( 0.0000,  0.0000,  0.0000)
   9 O     -0.166037    1.698602    1.455528    ( 0.0000,  0.0000,  0.0000)
  10 O      4.890156    1.698625    1.191790    ( 0.0000,  0.0000,  0.0000)
  11 O      0.888358   -1.273896   -1.115855    ( 0.0000,  0.0000,  0.0000)
  12 Mn    -2.445557   -1.274211    0.312921    ( 0.0000,  0.0000,  1.0000)
  13 Mn    -1.888303    1.698892   -1.994948    ( 0.0000,  0.0000, -1.0000)
  14 Mn     3.167879    1.698917    0.016752    ( 0.0000,  0.0000, -1.0000)
  15 Mn     2.610624   -1.274187    2.324621    ( 0.0000,  0.0000,  1.0000)
  16 P     -0.529549   -1.273917   -1.724376    ( 0.0000,  0.0000,  0.0000)
  17 P     -3.804359    1.698599    0.583463    ( 0.0000,  0.0000,  0.0000)
  18 P      1.251870    1.698623    2.054050    ( 0.0000,  0.0000,  0.0000)
  19 P      4.526680   -1.273894   -0.253789    ( 0.0000,  0.0000,  0.0000)
  20 O     -0.544227   -1.273926    1.365380    ( 0.0000,  0.0000,  0.0000)
  21 O     -3.789411    1.698610   -0.942222    ( 0.0000,  0.0000,  0.0000)
  22 O      1.266548    1.698631   -1.035707    ( 0.0000,  0.0000,  0.0000)
  23 O      4.511733   -1.273905    1.271895    ( 0.0000,  0.0000,  0.0000)
  24 Li    -4.695087   -2.760584   -2.142877    ( 0.0000,  0.0000,  0.0000)
  25 Li     0.361147   -2.760561    0.164836    ( 0.0000,  0.0000,  0.0000)
  26 Li    -4.695074    0.212330   -2.142877    ( 0.0000,  0.0000,  0.0000)
  27 Li     0.361161    0.212353    0.164837    ( 0.0000,  0.0000,  0.0000)

Unit cell:
           periodic     x           y           z      points  spacing
  1. axis:    yes   10.112485    0.000045   -0.000035    60     0.1685
  2. axis:    yes    0.000026    5.945827    0.000001    35     0.1699
  3. axis:    yes   -0.000016    0.000000    4.615463    27     0.1709

  Lengths:  10.112485   5.945827   4.615463
  Angles:   89.999989  90.000396  89.999490

Effective grid spacing dv^(1/3) = 0.1698

                     log10-error:           total        iterations:
           time      wfs    density  force  energy       poisson  magmom
iter:   1  02:22:07                       -221.371124             +0.0000
iter:   2  02:22:44  -0.61  -0.93         -234.825202             +0.0000
iter:   3  02:23:21  -0.37  -0.97         -225.909501             -0.0000
iter:   4  02:23:59  -1.39  -1.29         -225.760390             +0.0000
iter:   5  02:24:36  -1.27  -1.39         -227.325293             +0.0000
iter:   6  02:25:13  -1.47  -1.46         -225.737030             +0.0000
iter:   7  02:25:51  -2.48  -2.04         -225.724825             +0.0000
iter:   8  02:26:28  -2.21  -1.99         -225.569520             +0.0000
iter:   9  02:27:05  -2.49  -2.12         -225.434036             +0.0000
iter:  10  02:27:43  -3.30  -2.53         -225.422893             +0.0000
iter:  11  02:28:20  -3.53  -2.80         -225.411089             +0.0000
iter:  12  02:28:57  -4.19  -3.05         -225.410350             -0.0000
iter:  13  02:29:35  -5.00  -3.30         -225.410440             -0.0000
iter:  14  02:30:12  -5.26  -3.32         -225.410247             -0.0000
iter:  15  02:30:49  -5.88  -3.45         -225.410273             -0.0000
iter:  16  02:31:27  -5.27  -3.50         -225.410637             +0.0000
iter:  17  02:32:04  -6.30  -3.56         -225.410482             -0.0000
iter:  18  02:32:41  -6.07  -3.61         -225.410397             +0.0000
iter:  19  02:33:18  -6.37  -3.78         -225.410356             +0.0000
iter:  20  02:33:55  -5.99  -3.91         -225.410254             -0.0000
iter:  21  02:34:33  -6.12  -3.95         -225.410211             +0.0000
iter:  22  02:35:10  -6.67  -4.28         -225.410215             -0.0000
iter:  23  02:35:57  -7.53  -4.34         -225.410214             +0.0000
iter:  24  02:36:44  -7.76  -4.41    -2.85-225.410211             +0.0000
iter:  25  02:37:21  -6.69  -4.44         -225.410209             +0.0000
iter:  26  02:38:09  -8.03  -4.63    -2.15-225.410208             +0.0000
iter:  27  02:38:56  -7.58  -4.66    -2.65-225.410208             +0.0000
iter:  28  02:39:42  -8.13  -4.82    -2.73-225.410208             +0.0000
iter:  29  02:40:30  -8.52  -4.88    -3.02-225.410207             +0.0000
iter:  30  02:41:16  -8.85  -4.98    -3.52-225.410208             +0.0000
iter:  31  02:42:03  -9.34  -5.01    -3.21-225.410208             +0.0000
iter:  32  02:42:50  -8.89  -5.13    -3.54-225.410208             +0.0000
iter:  33  02:43:37  -9.71  -5.28    -3.46-225.410208             +0.0000
iter:  34  02:44:24  -9.15  -5.37    -3.12-225.410208             +0.0000
iter:  35  02:45:11  -8.87  -5.50    -3.44-225.410208             +0.0000
iter:  36  02:45:58  -8.59  -5.46    -3.20-225.410208             +0.0000
iter:  37  02:46:45  -9.75  -5.70    -3.61-225.410208             +0.0000
iter:  38  02:47:32 -10.37  -6.25    -4.47-225.410208             +0.0000
iter:  39  02:48:19 -10.89  -6.28    -4.38-225.410208             +0.0000
iter:  40  02:49:06 -10.41  -6.39    -4.10-225.410208             +0.0000
iter:  41  02:49:53 -11.34  -6.37    -4.66-225.410208             +0.0000
iter:  42  02:50:40 -11.35  -6.63    -4.56-225.410208             +0.0000
iter:  43  02:51:27 -11.99  -6.71    -4.80-225.410208             +0.0000
iter:  44  02:52:14 -12.31  -6.77    -5.18-225.410208             +0.0000
iter:  45  02:53:01 -12.23  -6.84    -4.98-225.410208             +0.0000
iter:  46  02:53:48 -11.67  -6.92    -4.67-225.410208             +0.0000
iter:  47  02:54:35 -12.33  -7.00    -5.09-225.410208             +0.0000
iter:  48  02:55:22 -13.68  -7.24    -5.98-225.410208             +0.0000
iter:  49  02:56:09 -12.70  -7.27    -4.85-225.410208             +0.0000
iter:  50  02:56:56 -12.82  -7.42    -5.21-225.410208             +0.0000
iter:  51  02:57:43 -14.21  -7.56    -6.04-225.410208             +0.0000

Converged after 51 iterations.

Dipole moment: (19.057389, -1.427194, -4.188501) |e|*Ang

Total magnetic moment: (0.000000, 0.000000, 0.000000)
Local magnetic moments:
   0 O  ( 0.000000,  0.000000,  0.000629)
   1 O  ( 0.000000,  0.000000, -0.000684)
   2 O  ( 0.000000,  0.000000, -0.000709)
   3 O  ( 0.000000,  0.000000,  0.000666)
   4 O  ( 0.000000,  0.000000, -0.000713)
   5 O  ( 0.000000,  0.000000,  0.000670)
   6 O  ( 0.000000,  0.000000,  0.000625)
   7 O  ( 0.000000,  0.000000, -0.000680)
   8 O  ( 0.000000,  0.000000,  0.022373)
   9 O  ( 0.000000,  0.000000, -0.022388)
  10 O  ( 0.000000,  0.000000, -0.022346)
  11 O  ( 0.000000,  0.000000,  0.022354)
  12 Mn ( 0.000000,  0.000000,  4.575052)
  13 Mn ( 0.000000,  0.000000, -4.574587)
  14 Mn ( 0.000000,  0.000000, -4.575119)
  15 Mn ( 0.000000,  0.000000,  4.575032)
  16 P  ( 0.000000,  0.000000,  0.000801)
  17 P  ( 0.000000,  0.000000, -0.000824)
  18 P  ( 0.000000,  0.000000, -0.000877)
  19 P  ( 0.000000,  0.000000,  0.000811)
  20 O  ( 0.000000,  0.000000,  0.020703)
  21 O  ( 0.000000,  0.000000, -0.020666)
  22 O  ( 0.000000,  0.000000, -0.020794)
  23 O  ( 0.000000,  0.000000,  0.020703)
  24 Li ( 0.000000,  0.000000, -0.000000)
  25 Li ( 0.000000,  0.000000,  0.000005)
  26 Li ( 0.000000,  0.000000, -0.000000)
  27 Li ( 0.000000,  0.000000,  0.000005)

Energy contributions relative to reference atoms: (reference = -196157.275402)

Kinetic:       +297.197328
Potential:     -256.664244
External:        +0.000000
XC:            -267.722800
Entropy (-ST):   -0.000000
Local:           +1.779508
Free energy:   -225.410208
Extrapolated:  -225.410208

Spin contamination: 9.697093 electrons
Showing only first 2 kpts
                      Up                     Down
 Kpt  Band  Eigenvalues  Occupancy  Eigenvalues  Occupancy
  0    88      5.10951    0.00694      5.11545    0.00694
  0    89      5.16117    0.00694      5.16751    0.00694
  0    90      9.65511    0.00000      9.65244    0.00000
  0    91      9.67309    0.00000      9.67142    0.00000

  1    88      5.12103    0.00694      5.12700    0.00694
  1    89      5.17037    0.00694      5.17709    0.00694
  1    90      9.53709    0.00000      9.53465    0.00000
  1    91      9.54518    0.00000      9.54554    0.00000

Fermi level: 6.37083

Gap: 3.791 eV
Transition (v -> c):
  (s=1, k=68, n=89, [-0.08, 0.42, -0.38]) -> (s=0, k=57, n=90, [-0.08, -0.08, -0.12])
Writing to born-0.01-9z+.gpw (mode='all')