User:   madkru@g035.nifl.fysik.dtu.dk
Date:   Mon Mar 22 10:36:56 2021
Arch:   x86_64
Pid:    44316
Python: 3.7.4
gpaw:   /home/niflheim/madkru/venv_folder/gpaw/gpaw (d0d1ca1c71)
_gpaw:  /home/niflheim/madkru/venv_folder/gpaw/build/lib.linux-x86_64-sandybridge-3.7/
        _gpaw.cpython-37m-x86_64-linux-gnu.so (4fd39e8b1e)
ase:    /home/niflheim/madkru/venv_folder/ase/ase (version 3.21.0b1-7e6c206a91)
numpy:  /home/niflheim/madkru/venv_folder/lib/python3.7/site-packages/numpy (version 1.19.4)
scipy:  /home/niflheim/madkru/venv_folder/lib/python3.7/site-packages/scipy (version 1.5.4)
units:  Angstrom and eV
cores: 32
OMP_NUM_THREADS: 1

Input parameters:
  convergence: {bands: occupied,
                density: 0.0001,
                eigenstates: 4e-08,
                energy: 0.0005,
                forces: 1e-06}
  kpts: [6 6 4]
  mode: {ecut: 600.0,
         gammacentered: False,
         name: pw}
  occupations: {fixmagmom: False,
                name: fermi-dirac,
                width: 0.001}
  setups: {Mn: :d,3.0}
  symmetry: {point_group: False,
             time_reversal: False}

System changes: positions, numbers, cell, pbc, initial_charges, initial_magmoms

Initialize ...

O-setup:
  name: Oxygen
  id: 9b9d51c344dea68c822856295a461509
  Z: 8.0
  valence: 6
  core: 2
  charge: 0.0
  file: /home/modules/software/GPAW-setups/0.9.20000/O.LDA.gz
  compensation charges: gauss, rc=0.21, lmax=2
  cutoffs: 1.17(filt), 0.83(core),
  valence states:
                energy  radius
    2s(2.00)   -23.752   0.688
    2p(4.00)    -9.195   0.598
    *s           3.459   0.688
    *p          18.016   0.598
    *d           0.000   0.619

  Using partial waves for O as LCAO basis

Mn-setup:
  name: Manganese
  id: 0d715a8018be061a6e9ea6f2d364ac92
  Z: 25.0
  valence: 15
  core: 10
  charge: 0.0
  Hubbard U: 3.000000 eV (l=2, scale=True)
  file: /home/modules/software/GPAW-setups/0.9.20000/Mn.LDA.gz
  compensation charges: gauss, rc=0.38, lmax=2
  cutoffs: 2.14(filt), 0.86(core),
  valence states:
                energy  radius
    3s(2.00)   -85.387   1.275
    4s(2.00)    -5.282   1.275
    3p(6.00)   -54.493   1.281
    4p(0.00)    -1.471   1.281
    3d(5.00)    -7.009   1.138
    *d          20.203   1.138

[...]

P-setup:
  name: Phosphorus
  id: a5561c299094968922a179ab894d2e2d
  Z: 15.0
  valence: 5
  core: 10
  charge: 0.0
  file: /home/modules/software/GPAW-setups/0.9.20000/P.LDA.gz
  compensation charges: gauss, rc=0.30, lmax=2
  cutoffs: 1.69(filt), 1.81(core),
  valence states:
                energy  radius
    3s(2.00)   -14.015   0.953
    3p(3.00)    -5.596   0.953
    *s          13.197   0.953
    *p          21.615   0.953
    *d           0.000   0.953

[...]

Li-setup:
  name: Lithium
  id: b73562207f97a71b6967473b66fe8b65
  Z: 3.0
  valence: 1
  core: 2
  charge: 0.0
  file: /home/modules/software/GPAW-setups/0.9.20000/Li.LDA.gz
  compensation charges: gauss, rc=0.33, lmax=2
  cutoffs: 1.91(filt), 2.55(core),
  valence states:
                energy  radius
    2s(1.00)    -2.874   1.058
    2p(0.00)    -1.126   1.058
    *s          24.338   1.058

  Using partial waves for Li as LCAO basis

Reference energy: -196157.275402

Spin-polarized calculation.
Magnetic moment: 0.000000

Convergence criteria:
  Maximum total energy change: 0.0005 eV / electron
  Maximum integral of absolute density change: 0.0001 electrons
  Maximum integral of absolute eigenstate change: 4e-08 eV^2
  Maximum change in atomic force: 1e-06 eV / Ang
  Maximum number of iterations: 333

Symmetries present (total): 1

  ( 1  0  0)
  ( 0  1  0)
  ( 0  0  1)

144 k-points: 6 x 6 x 4 Monkhorst-Pack grid
144 k-points in the irreducible part of the Brillouin zone
       k-points in crystal coordinates                weights
   0:    -0.41666667   -0.41666667   -0.37500000          1/144
   1:    -0.41666667   -0.41666667   -0.12500000          1/144
   2:    -0.41666667   -0.41666667    0.12500000          1/144
   3:    -0.41666667   -0.41666667    0.37500000          1/144
   4:    -0.41666667   -0.25000000   -0.37500000          1/144
   5:    -0.41666667   -0.25000000   -0.12500000          1/144
   6:    -0.41666667   -0.25000000    0.12500000          1/144
   7:    -0.41666667   -0.25000000    0.37500000          1/144
   8:    -0.41666667   -0.08333333   -0.37500000          1/144
   9:    -0.41666667   -0.08333333   -0.12500000          1/144
          ...
 143:     0.41666667    0.41666667    0.37500000          1/144

Wave functions: Plane wave expansion
  Cutoff energy: 600.000 eV
  Number of coefficients (min, max): 9238, 9284
  Pulay-stress correction: 0.000000 eV/Ang^3 (de/decut=0.000000)
  Using FFTW library
  ScaLapack parameters: grid=1x1, blocksize=None
  Wavefunction extrapolation:
    Improved wavefunction reuse through dual PAW basis

  Fermi-Dirac: width=0.0010 eV

Eigensolver
   Davidson(niter=2, smin=None, normalize=True)

Densities:
  Coarse grid: 60*35*27 grid
  Fine grid: 120*70*54 grid
  Total Charge: 0.000000

Density mixing:
  Method: difference
  Backend: pulay
  Linear mixing parameter: 0.05
  Mixing with 5 old densities
  Damping of long wave oscillations: 50

Hamiltonian:
  XC and Coulomb potentials evaluated on a 120*70*54 grid
  Using the LDA Exchange-Correlation functional

Total number of cores used: 32
Parallelization over k-points: 16
Domain decomposition: 2 x 1 x 1

Number of atoms: 28
Number of atomic orbitals: 148
Number of bands in calculation: 112
Number of valence electrons: 180
Bands to converge: occupied

... initialized

Initializing position-dependent things.

Density initialized from atomic densities
Creating initial wave functions:
  112 bands from LCAO basis set

               O     O  P  O
            PO           OMn     O
                  O          MO
            O        Li O
             Mn  On          OP
         O         Li O
         Li     O P         O
       Li

Positions:
   0 O     -1.263197   -2.497779   -1.098475    ( 0.0000,  0.0000,  0.0000)
   1 O     -3.070823    2.922496    1.209491    ( 0.0000,  0.0000,  0.0000)
   2 O      1.985541    0.474863    1.428016    ( 0.0000,  0.0000,  0.0000)
   3 O      3.793120   -0.050100   -0.879950    ( 0.0000,  0.0000,  0.0000)
   4 O      1.985518    2.922485    1.428149    ( 0.0000,  0.0000,  0.0000)
   5 O      3.793144   -2.497790   -0.879818    ( 0.0000,  0.0000,  0.0000)
   6 O     -1.263220   -0.040157   -1.098342    ( 0.0000,  0.0000,  0.0000)
   7 O     -3.070798    0.474805    1.209623    ( 0.0000,  0.0000,  0.0000)
   8 O     -4.167835   -1.273920   -0.862116    ( 0.0000,  0.0000,  0.0000)
   9 O     -0.166037    1.698602    1.445528    ( 0.0000,  0.0000,  0.0000)
  10 O      4.890156    1.698625    1.191790    ( 0.0000,  0.0000,  0.0000)
  11 O      0.888358   -1.273896   -1.115855    ( 0.0000,  0.0000,  0.0000)
  12 Mn    -2.445557   -1.274211    0.312921    ( 0.0000,  0.0000,  1.0000)
  13 Mn    -1.888303    1.698892   -1.994948    ( 0.0000,  0.0000, -1.0000)
  14 Mn     3.167879    1.698917    0.016752    ( 0.0000,  0.0000, -1.0000)
  15 Mn     2.610624   -1.274187    2.324621    ( 0.0000,  0.0000,  1.0000)
  16 P     -0.529549   -1.273917   -1.724376    ( 0.0000,  0.0000,  0.0000)
  17 P     -3.804359    1.698599    0.583463    ( 0.0000,  0.0000,  0.0000)
  18 P      1.251870    1.698623    2.054050    ( 0.0000,  0.0000,  0.0000)
  19 P      4.526680   -1.273894   -0.253789    ( 0.0000,  0.0000,  0.0000)
  20 O     -0.544227   -1.273926    1.365380    ( 0.0000,  0.0000,  0.0000)
  21 O     -3.789411    1.698610   -0.942222    ( 0.0000,  0.0000,  0.0000)
  22 O      1.266548    1.698631   -1.035707    ( 0.0000,  0.0000,  0.0000)
  23 O      4.511733   -1.273905    1.271895    ( 0.0000,  0.0000,  0.0000)
  24 Li    -4.695087   -2.760584   -2.142877    ( 0.0000,  0.0000,  0.0000)
  25 Li     0.361147   -2.760561    0.164836    ( 0.0000,  0.0000,  0.0000)
  26 Li    -4.695074    0.212330   -2.142877    ( 0.0000,  0.0000,  0.0000)
  27 Li     0.361161    0.212353    0.164837    ( 0.0000,  0.0000,  0.0000)

Unit cell:
           periodic     x           y           z      points  spacing
  1. axis:    yes   10.112485    0.000045   -0.000035    60     0.1685
  2. axis:    yes    0.000026    5.945827    0.000001    35     0.1699
  3. axis:    yes   -0.000016    0.000000    4.615463    27     0.1709

  Lengths:  10.112485   5.945827   4.615463
  Angles:   89.999989  90.000396  89.999490

Effective grid spacing dv^(1/3) = 0.1698

                     log10-error:           total        iterations:
           time      wfs    density  force  energy       poisson  magmom
iter:   1  10:40:13                       -221.376621             +0.0000
iter:   2  10:40:50  -0.61  -0.93         -234.818033             +0.0000
iter:   3  10:41:27  -0.37  -0.97         -225.905093             -0.0000
iter:   4  10:42:05  -1.39  -1.29         -225.760547             +0.0000
iter:   5  10:42:42  -1.27  -1.39         -227.320166             +0.0000
iter:   6  10:43:19  -1.47  -1.46         -225.735764             +0.0000
iter:   7  10:43:56  -2.48  -2.04         -225.722498             +0.0000
iter:   8  10:44:33  -2.14  -1.99         -225.594185             +0.0000
iter:   9  10:45:11  -2.45  -2.08         -225.430795             +0.0000
iter:  10  10:45:48  -3.32  -2.55         -225.421296             +0.0000
iter:  11  10:46:25  -3.66  -2.81         -225.410749             +0.0000
iter:  12  10:47:02  -4.11  -3.04         -225.409640             +0.0000
iter:  13  10:47:39  -5.08  -3.29         -225.409508             -0.0000
iter:  14  10:48:17  -5.40  -3.32         -225.409339             -0.0000
iter:  15  10:48:54  -6.05  -3.44         -225.409346             -0.0000
iter:  16  10:49:31  -5.33  -3.48         -225.409625             +0.0000
iter:  17  10:50:08  -5.80  -3.60         -225.409535             -0.0000
iter:  18  10:50:46  -5.38  -3.74         -225.409288             +0.0000
iter:  19  10:51:23  -6.02  -4.00         -225.409296             -0.0000
iter:  20  10:52:00  -7.03  -4.26         -225.409290             -0.0000
iter:  21  10:52:47  -7.66  -4.33         -225.409294             -0.0000
iter:  22  10:53:34  -7.44  -4.43    -2.33-225.409295             -0.0000
iter:  23  10:54:21  -7.74  -4.41    -2.90-225.409292             -0.0000
iter:  24  10:55:08  -7.99  -4.45    -2.68-225.409292             -0.0000
iter:  25  10:55:55  -7.68  -4.55    -2.99-225.409292             -0.0000
iter:  26  10:56:41  -8.41  -4.67    -3.19-225.409292             -0.0000
iter:  27  10:57:28  -8.88  -4.74    -3.39-225.409292             +0.0000
iter:  28  10:58:15  -8.18  -4.81    -2.67-225.409292             -0.0000
iter:  29  10:59:02  -9.05  -5.16    -3.76-225.409292             -0.0000
iter:  30  10:59:49  -8.99  -5.16    -3.55-225.409292             -0.0000
iter:  31  11:00:36  -8.90  -5.19    -2.96-225.409292             -0.0000
iter:  32  11:01:23 -10.12  -5.31    -4.24-225.409292             -0.0000
iter:  33  11:02:10 -10.52  -5.31    -3.81-225.409292             -0.0000
iter:  34  11:02:57  -9.96  -5.34    -3.63-225.409292             -0.0000
iter:  35  11:03:44 -10.04  -5.39    -4.01-225.409292             -0.0000
iter:  36  11:04:31 -10.34  -5.54    -4.40-225.409292             -0.0000
iter:  37  11:05:18  -8.92  -5.62    -3.56-225.409292             -0.0000
iter:  38  11:06:05 -10.23  -6.08    -4.17-225.409292             -0.0000
iter:  39  11:06:52 -10.89  -6.15    -4.51-225.409292             +0.0000
iter:  40  11:07:39 -10.68  -6.20    -3.96-225.409292             +0.0000
iter:  41  11:08:26 -10.61  -6.38    -4.26-225.409292             -0.0000
iter:  42  11:09:13 -11.93  -6.54    -5.05-225.409292             -0.0000
iter:  43  11:10:00 -11.06  -6.56    -4.51-225.409291             -0.0000
iter:  44  11:10:47 -11.58  -6.70    -4.66-225.409291             -0.0000
iter:  45  11:11:34 -11.48  -6.80    -4.34-225.409291             +0.0000
iter:  46  11:12:21 -12.61  -6.97    -4.97-225.409291             +0.0000
iter:  47  11:13:08 -12.17  -7.04    -4.92-225.409292             +0.0000
iter:  48  11:13:55 -13.44  -7.11    -5.48-225.409292             +0.0000
iter:  49  11:14:42 -13.44  -7.12    -5.26-225.409292             -0.0000
iter:  50  11:15:28 -13.47  -7.16    -5.36-225.409292             -0.0000
iter:  51  11:16:15 -13.16  -7.22    -5.15-225.409292             +0.0000
iter:  52  11:17:02 -13.98  -7.31    -5.85-225.409292             +0.0000
iter:  53  11:17:49 -13.24  -7.33    -5.76-225.409292             +0.0000
iter:  54  11:18:36 -13.21  -7.38    -5.05-225.409292             +0.0000
iter:  55  11:19:23 -13.42  -7.66    -5.41-225.409292             +0.0000
iter:  56  11:20:10 -14.80  -7.86    -6.53-225.409292             +0.0000

Converged after 56 iterations.

Dipole moment: (19.051606, -1.927290, -4.182641) |e|*Ang

Total magnetic moment: (0.000000, 0.000000, 0.000000)
Local magnetic moments:
   0 O  ( 0.000000,  0.000000,  0.000733)
   1 O  ( 0.000000,  0.000000, -0.000525)
   2 O  ( 0.000000,  0.000000, -0.000650)
   3 O  ( 0.000000,  0.000000,  0.000675)
   4 O  ( 0.000000,  0.000000, -0.000659)
   5 O  ( 0.000000,  0.000000,  0.000677)
   6 O  ( 0.000000,  0.000000,  0.000424)
   7 O  ( 0.000000,  0.000000, -0.000712)
   8 O  ( 0.000000,  0.000000,  0.022371)
   9 O  ( 0.000000,  0.000000, -0.022398)
  10 O  ( 0.000000,  0.000000, -0.022383)
  11 O  ( 0.000000,  0.000000,  0.022199)
  12 Mn ( 0.000000,  0.000000,  4.575102)
  13 Mn ( 0.000000,  0.000000, -4.573988)
  14 Mn ( 0.000000,  0.000000, -4.575072)
  15 Mn ( 0.000000,  0.000000,  4.574991)
  16 P  ( 0.000000,  0.000000,  0.000525)
  17 P  ( 0.000000,  0.000000, -0.000832)
  18 P  ( 0.000000,  0.000000, -0.000826)
  19 P  ( 0.000000,  0.000000,  0.000810)
  20 O  ( 0.000000,  0.000000,  0.020608)
  21 O  ( 0.000000,  0.000000, -0.020764)
  22 O  ( 0.000000,  0.000000, -0.020706)
  23 O  ( 0.000000,  0.000000,  0.020723)
  24 Li ( 0.000000,  0.000000, -0.000001)
  25 Li ( 0.000000,  0.000000, -0.000002)
  26 Li ( 0.000000,  0.000000, -0.000000)
  27 Li ( 0.000000,  0.000000, -0.000026)

Energy contributions relative to reference atoms: (reference = -196157.275402)

Kinetic:       +296.336653
Potential:     -255.992542
External:        +0.000000
XC:            -267.535067
Entropy (-ST):   -0.000000
Local:           +1.781665
Free energy:   -225.409292
Extrapolated:  -225.409292

Spin contamination: 9.696658 electrons
Showing only first 2 kpts
                      Up                     Down
 Kpt  Band  Eigenvalues  Occupancy  Eigenvalues  Occupancy
  0    88      5.10568    0.00694      5.11590    0.00694
  0    89      5.15707    0.00694      5.16882    0.00694
  0    90      9.65522    0.00000      9.64821    0.00000
  0    91      9.68003    0.00000      9.66823    0.00000

  1    88      5.11740    0.00694      5.12770    0.00694
  1    89      5.16637    0.00694      5.17808    0.00694
  1    90      9.53654    0.00000      9.52739    0.00000
  1    91      9.55421    0.00000      9.54219    0.00000

Fermi level: 6.37076

Gap: 3.785 eV
Transition (v -> c):
  (s=1, k=92, n=89, [0.08, 0.42, -0.38]) -> (s=1, k=61, n=90, [-0.08, 0.08, -0.12])
Writing to born-0.01-6y+.gpw (mode='all')