User:   madkru@g035.nifl.fysik.dtu.dk
Date:   Tue Mar 23 00:00:29 2021
Arch:   x86_64
Pid:    44316
Python: 3.7.4
gpaw:   /home/niflheim/madkru/venv_folder/gpaw/gpaw (d0d1ca1c71)
_gpaw:  /home/niflheim/madkru/venv_folder/gpaw/build/lib.linux-x86_64-sandybridge-3.7/
        _gpaw.cpython-37m-x86_64-linux-gnu.so (4fd39e8b1e)
ase:    /home/niflheim/madkru/venv_folder/ase/ase (version 3.21.0b1-7e6c206a91)
numpy:  /home/niflheim/madkru/venv_folder/lib/python3.7/site-packages/numpy (version 1.19.4)
scipy:  /home/niflheim/madkru/venv_folder/lib/python3.7/site-packages/scipy (version 1.5.4)
units:  Angstrom and eV
cores: 32
OMP_NUM_THREADS: 1

Input parameters:
  convergence: {bands: occupied,
                density: 0.0001,
                eigenstates: 4e-08,
                energy: 0.0005,
                forces: 1e-06}
  kpts: [6 6 4]
  mode: {ecut: 600.0,
         gammacentered: False,
         name: pw}
  occupations: {fixmagmom: False,
                name: fermi-dirac,
                width: 0.001}
  setups: {Mn: :d,3.0}
  symmetry: {point_group: False,
             time_reversal: False}

System changes: positions, numbers, cell, pbc, initial_charges, initial_magmoms

Initialize ...

O-setup:
  name: Oxygen
  id: 9b9d51c344dea68c822856295a461509
  Z: 8.0
  valence: 6
  core: 2
  charge: 0.0
  file: /home/modules/software/GPAW-setups/0.9.20000/O.LDA.gz
  compensation charges: gauss, rc=0.21, lmax=2
  cutoffs: 1.17(filt), 0.83(core),
  valence states:
                energy  radius
    2s(2.00)   -23.752   0.688
    2p(4.00)    -9.195   0.598
    *s           3.459   0.688
    *p          18.016   0.598
    *d           0.000   0.619

  Using partial waves for O as LCAO basis

Mn-setup:
  name: Manganese
  id: 0d715a8018be061a6e9ea6f2d364ac92
  Z: 25.0
  valence: 15
  core: 10
  charge: 0.0
  Hubbard U: 3.000000 eV (l=2, scale=True)
  file: /home/modules/software/GPAW-setups/0.9.20000/Mn.LDA.gz
  compensation charges: gauss, rc=0.38, lmax=2
  cutoffs: 2.14(filt), 0.86(core),
  valence states:
                energy  radius
    3s(2.00)   -85.387   1.275
    4s(2.00)    -5.282   1.275
    3p(6.00)   -54.493   1.281
    4p(0.00)    -1.471   1.281
    3d(5.00)    -7.009   1.138
    *d          20.203   1.138

[...]

P-setup:
  name: Phosphorus
  id: a5561c299094968922a179ab894d2e2d
  Z: 15.0
  valence: 5
  core: 10
  charge: 0.0
  file: /home/modules/software/GPAW-setups/0.9.20000/P.LDA.gz
  compensation charges: gauss, rc=0.30, lmax=2
  cutoffs: 1.69(filt), 1.81(core),
  valence states:
                energy  radius
    3s(2.00)   -14.015   0.953
    3p(3.00)    -5.596   0.953
    *s          13.197   0.953
    *p          21.615   0.953
    *d           0.000   0.953

[...]

Li-setup:
  name: Lithium
  id: b73562207f97a71b6967473b66fe8b65
  Z: 3.0
  valence: 1
  core: 2
  charge: 0.0
  file: /home/modules/software/GPAW-setups/0.9.20000/Li.LDA.gz
  compensation charges: gauss, rc=0.33, lmax=2
  cutoffs: 1.91(filt), 2.55(core),
  valence states:
                energy  radius
    2s(1.00)    -2.874   1.058
    2p(0.00)    -1.126   1.058
    *s          24.338   1.058

  Using partial waves for Li as LCAO basis

Reference energy: -196157.275402

Spin-polarized calculation.
Magnetic moment: 0.000000

Convergence criteria:
  Maximum total energy change: 0.0005 eV / electron
  Maximum integral of absolute density change: 0.0001 electrons
  Maximum integral of absolute eigenstate change: 4e-08 eV^2
  Maximum change in atomic force: 1e-06 eV / Ang
  Maximum number of iterations: 333

Symmetries present (total): 1

  ( 1  0  0)
  ( 0  1  0)
  ( 0  0  1)

144 k-points: 6 x 6 x 4 Monkhorst-Pack grid
144 k-points in the irreducible part of the Brillouin zone
       k-points in crystal coordinates                weights
   0:    -0.41666667   -0.41666667   -0.37500000          1/144
   1:    -0.41666667   -0.41666667   -0.12500000          1/144
   2:    -0.41666667   -0.41666667    0.12500000          1/144
   3:    -0.41666667   -0.41666667    0.37500000          1/144
   4:    -0.41666667   -0.25000000   -0.37500000          1/144
   5:    -0.41666667   -0.25000000   -0.12500000          1/144
   6:    -0.41666667   -0.25000000    0.12500000          1/144
   7:    -0.41666667   -0.25000000    0.37500000          1/144
   8:    -0.41666667   -0.08333333   -0.37500000          1/144
   9:    -0.41666667   -0.08333333   -0.12500000          1/144
          ...
 143:     0.41666667    0.41666667    0.37500000          1/144

Wave functions: Plane wave expansion
  Cutoff energy: 600.000 eV
  Number of coefficients (min, max): 9238, 9284
  Pulay-stress correction: 0.000000 eV/Ang^3 (de/decut=0.000000)
  Using FFTW library
  ScaLapack parameters: grid=1x1, blocksize=None
  Wavefunction extrapolation:
    Improved wavefunction reuse through dual PAW basis

  Fermi-Dirac: width=0.0010 eV

Eigensolver
   Davidson(niter=2, smin=None, normalize=True)

Densities:
  Coarse grid: 60*35*27 grid
  Fine grid: 120*70*54 grid
  Total Charge: 0.000000

Density mixing:
  Method: difference
  Backend: pulay
  Linear mixing parameter: 0.05
  Mixing with 5 old densities
  Damping of long wave oscillations: 50

Hamiltonian:
  XC and Coulomb potentials evaluated on a 120*70*54 grid
  Using the LDA Exchange-Correlation functional

Total number of cores used: 32
Parallelization over k-points: 16
Domain decomposition: 2 x 1 x 1

Number of atoms: 28
Number of atomic orbitals: 148
Number of bands in calculation: 112
Number of valence electrons: 180
Bands to converge: occupied

... initialized

Initializing position-dependent things.

Density initialized from atomic densities
Creating initial wave functions:
  112 bands from LCAO basis set

               O     O  P  O
            PO           OMn     O
                  O          MO
            O        Li O
             Mn  On          OP
         O         Li O
         Li     O P         O
       Li

Positions:
   0 O     -1.263197   -2.497779   -1.098475    ( 0.0000,  0.0000,  0.0000)
   1 O     -3.070823    2.922496    1.209491    ( 0.0000,  0.0000,  0.0000)
   2 O      1.985541    0.474863    1.428016    ( 0.0000,  0.0000,  0.0000)
   3 O      3.793120   -0.050100   -0.879950    ( 0.0000,  0.0000,  0.0000)
   4 O      1.985518    2.922485    1.428149    ( 0.0000,  0.0000,  0.0000)
   5 O      3.793144   -2.497790   -0.879818    ( 0.0000,  0.0000,  0.0000)
   6 O     -1.263220   -0.050157   -1.098342    ( 0.0000,  0.0000,  0.0000)
   7 O     -3.070798    0.474805    1.209623    ( 0.0000,  0.0000,  0.0000)
   8 O     -4.167835   -1.273920   -0.862116    ( 0.0000,  0.0000,  0.0000)
   9 O     -0.166037    1.688602    1.445528    ( 0.0000,  0.0000,  0.0000)
  10 O      4.890156    1.698625    1.191790    ( 0.0000,  0.0000,  0.0000)
  11 O      0.888358   -1.273896   -1.115855    ( 0.0000,  0.0000,  0.0000)
  12 Mn    -2.445557   -1.274211    0.312921    ( 0.0000,  0.0000,  1.0000)
  13 Mn    -1.888303    1.698892   -1.994948    ( 0.0000,  0.0000, -1.0000)
  14 Mn     3.167879    1.698917    0.016752    ( 0.0000,  0.0000, -1.0000)
  15 Mn     2.610624   -1.274187    2.324621    ( 0.0000,  0.0000,  1.0000)
  16 P     -0.529549   -1.273917   -1.724376    ( 0.0000,  0.0000,  0.0000)
  17 P     -3.804359    1.698599    0.583463    ( 0.0000,  0.0000,  0.0000)
  18 P      1.251870    1.698623    2.054050    ( 0.0000,  0.0000,  0.0000)
  19 P      4.526680   -1.273894   -0.253789    ( 0.0000,  0.0000,  0.0000)
  20 O     -0.544227   -1.273926    1.365380    ( 0.0000,  0.0000,  0.0000)
  21 O     -3.789411    1.698610   -0.942222    ( 0.0000,  0.0000,  0.0000)
  22 O      1.266548    1.698631   -1.035707    ( 0.0000,  0.0000,  0.0000)
  23 O      4.511733   -1.273905    1.271895    ( 0.0000,  0.0000,  0.0000)
  24 Li    -4.695087   -2.760584   -2.142877    ( 0.0000,  0.0000,  0.0000)
  25 Li     0.361147   -2.760561    0.164836    ( 0.0000,  0.0000,  0.0000)
  26 Li    -4.695074    0.212330   -2.142877    ( 0.0000,  0.0000,  0.0000)
  27 Li     0.361161    0.212353    0.164837    ( 0.0000,  0.0000,  0.0000)

Unit cell:
           periodic     x           y           z      points  spacing
  1. axis:    yes   10.112485    0.000045   -0.000035    60     0.1685
  2. axis:    yes    0.000026    5.945827    0.000001    35     0.1699
  3. axis:    yes   -0.000016    0.000000    4.615463    27     0.1709

  Lengths:  10.112485   5.945827   4.615463
  Angles:   89.999989  90.000396  89.999490

Effective grid spacing dv^(1/3) = 0.1698

                     log10-error:           total        iterations:
           time      wfs    density  force  energy       poisson  magmom
iter:   1  00:03:45                       -221.376655             +0.0000
iter:   2  00:04:22  -0.61  -0.93         -234.835980             +0.0000
iter:   3  00:05:00  -0.37  -0.97         -225.911944             -0.0000
iter:   4  00:05:37  -1.39  -1.29         -225.761483             +0.0000
iter:   5  00:06:14  -1.27  -1.39         -227.329768             +0.0000
iter:   6  00:06:52  -1.46  -1.46         -225.737279             +0.0000
iter:   7  00:07:29  -2.47  -2.04         -225.724682             +0.0000
iter:   8  00:08:06  -2.14  -1.99         -225.590891             +0.0000
iter:   9  00:08:44  -2.46  -2.09         -225.432279             +0.0000
iter:  10  00:09:21  -3.31  -2.55         -225.422365             +0.0000
iter:  11  00:09:58  -3.65  -2.81         -225.411965             +0.0000
iter:  12  00:10:36  -4.12  -3.05         -225.410851             +0.0000
iter:  13  00:11:13  -5.11  -3.29         -225.410728             -0.0000
iter:  14  00:11:50  -5.39  -3.32         -225.410556             -0.0000
iter:  15  00:12:28  -6.04  -3.43         -225.410562             -0.0000
iter:  16  00:13:05  -5.24  -3.47         -225.410903             +0.0000
iter:  17  00:13:42  -5.86  -3.58         -225.410789             -0.0000
iter:  18  00:14:20  -5.21  -3.70         -225.410504             +0.0000
iter:  19  00:14:57  -6.10  -4.14         -225.410508             -0.0000
iter:  20  00:15:34  -7.28  -4.53         -225.410510             -0.0000
iter:  21  00:16:22  -7.84  -4.55         -225.410509             -0.0000
iter:  22  00:17:09  -7.84  -4.64    -2.51-225.410510             -0.0000
iter:  23  00:17:56  -8.27  -4.82    -2.75-225.410509             -0.0000
iter:  24  00:18:43  -7.61  -4.95    -2.74-225.410510             -0.0000
iter:  25  00:19:30  -8.62  -4.98    -3.12-225.410509             -0.0000
iter:  26  00:20:17  -8.37  -5.24    -2.97-225.410509             -0.0000
iter:  27  00:21:04  -9.58  -5.81    -3.56-225.410509             -0.0000
iter:  28  00:21:51 -10.28  -5.92    -3.92-225.410509             -0.0000
iter:  29  00:22:38 -10.06  -5.96    -3.49-225.410509             -0.0000
iter:  30  00:23:25 -11.23  -6.15    -4.26-225.410509             -0.0000
iter:  31  00:24:12 -11.44  -6.19    -4.34-225.410509             -0.0000
iter:  32  00:24:59 -11.70  -6.23    -4.05-225.410509             -0.0000
iter:  33  00:25:46 -10.43  -6.26    -3.60-225.410509             -0.0000
iter:  34  00:26:33 -11.14  -6.35    -3.86-225.410509             -0.0000
iter:  35  00:27:20 -10.97  -6.47    -4.37-225.410509             -0.0000
iter:  36  00:28:07 -11.70  -6.69    -4.30-225.410509             -0.0000
iter:  37  00:28:54 -12.94  -7.05    -5.08-225.410509             -0.0000
iter:  38  00:29:40 -12.30  -7.10    -5.32-225.410509             -0.0000
iter:  39  00:30:27 -13.37  -7.41    -5.76-225.410509             -0.0000
iter:  40  00:31:14 -13.56  -7.44    -5.30-225.410509             -0.0000
iter:  41  00:32:01 -13.34  -7.50    -5.11-225.410509             -0.0000
iter:  42  00:32:48 -13.87  -7.59    -5.40-225.410509             -0.0000
iter:  43  00:33:35 -13.34  -7.70    -5.47-225.410509             -0.0000
iter:  44  00:34:22 -13.97  -7.90    -5.40-225.410509             -0.0000
iter:  45  00:35:09 -14.69  -8.05    -5.56-225.410509             -0.0000
iter:  46  00:35:56 -15.34  -8.17    -5.97-225.410509             -0.0000
iter:  47  00:36:43 -14.87  -8.24    -6.26-225.410509             -0.0000

Converged after 47 iterations.

Dipole moment: (19.052638, -1.421621, -4.182751) |e|*Ang

Total magnetic moment: (0.000000, 0.000000, -0.000000)
Local magnetic moments:
   0 O  ( 0.000000,  0.000000,  0.000645)
   1 O  ( 0.000000,  0.000000, -0.000671)
   2 O  ( 0.000000,  0.000000, -0.000677)
   3 O  ( 0.000000,  0.000000,  0.000670)
   4 O  ( 0.000000,  0.000000, -0.000647)
   5 O  ( 0.000000,  0.000000,  0.000671)
   6 O  ( 0.000000,  0.000000,  0.000679)
   7 O  ( 0.000000,  0.000000, -0.000670)
   8 O  ( 0.000000,  0.000000,  0.022368)
   9 O  ( 0.000000,  0.000000, -0.022368)
  10 O  ( 0.000000,  0.000000, -0.022368)
  11 O  ( 0.000000,  0.000000,  0.022368)
  12 Mn ( 0.000000,  0.000000,  4.575066)
  13 Mn ( 0.000000,  0.000000, -4.575035)
  14 Mn ( 0.000000,  0.000000, -4.575065)
  15 Mn ( 0.000000,  0.000000,  4.575035)
  16 P  ( 0.000000,  0.000000,  0.000812)
  17 P  ( 0.000000,  0.000000, -0.000817)
  18 P  ( 0.000000,  0.000000, -0.000811)
  19 P  ( 0.000000,  0.000000,  0.000817)
  20 O  ( 0.000000,  0.000000,  0.020709)
  21 O  ( 0.000000,  0.000000, -0.020709)
  22 O  ( 0.000000,  0.000000, -0.020708)
  23 O  ( 0.000000,  0.000000,  0.020708)
  24 Li ( 0.000000,  0.000000, -0.000000)
  25 Li ( 0.000000,  0.000000,  0.000016)
  26 Li ( 0.000000,  0.000000,  0.000000)
  27 Li ( 0.000000,  0.000000, -0.000016)

Energy contributions relative to reference atoms: (reference = -196157.275402)

Kinetic:       +296.837496
Potential:     -256.380618
External:        +0.000000
XC:            -267.648168
Entropy (-ST):   -0.000000
Local:           +1.780781
Free energy:   -225.410509
Extrapolated:  -225.410509

Spin contamination: 9.697234 electrons
Showing only first 2 kpts
                      Up                     Down
 Kpt  Band  Eigenvalues  Occupancy  Eigenvalues  Occupancy
  0    88      5.10938    0.00694      5.10965    0.00694
  0    89      5.16097    0.00694      5.16081    0.00694
  0    90      9.65231    0.00000      9.65229    0.00000
  0    91      9.67093    0.00000      9.67099    0.00000

  1    88      5.12098    0.00694      5.12091    0.00694
  1    89      5.17028    0.00694      5.17041    0.00694
  1    90      9.53454    0.00000      9.53455    0.00000
  1    91      9.54487    0.00000      9.54490    0.00000

Fermi level: 6.36986

Gap: 3.795 eV
Transition (v -> c):
  (s=1, k=68, n=89, [-0.08, 0.42, -0.38]) -> (s=1, k=81, n=90, [0.08, -0.08, -0.12])
Writing to born-0.01-9y-.gpw (mode='all')