User:   madkru@i018.nifl.fysik.dtu.dk
Date:   Wed Mar 24 04:59:40 2021
Arch:   x86_64
Pid:    26873
Python: 3.7.4
gpaw:   /home/niflheim/madkru/venv_folder/gpaw/gpaw (d0d1ca1c71)
_gpaw:  /home/niflheim/madkru/venv_folder/gpaw/build/lib.linux-x86_64-ivybridge-3.7/
        _gpaw.cpython-37m-x86_64-linux-gnu.so (4fd39e8b1e)
ase:    /home/niflheim/madkru/venv_folder/ase/ase (version 3.21.0b1-7e6c206a91)
numpy:  /home/niflheim/madkru/venv_folder/lib/python3.7/site-packages/numpy (version 1.19.4)
scipy:  /home/niflheim/madkru/venv_folder/lib/python3.7/site-packages/scipy (version 1.5.4)
units:  Angstrom and eV
cores: 64
OMP_NUM_THREADS: 1

Input parameters:
  convergence: {bands: occupied,
                density: 0.0001,
                eigenstates: 4e-08,
                energy: 0.0005,
                forces: 1e-06}
  kpts: [6 6 4]
  mode: {ecut: 600.0,
         gammacentered: False,
         name: pw}
  occupations: {fixmagmom: False,
                name: fermi-dirac,
                width: 0.001}
  setups: {Mn: :d,3.0}
  symmetry: {point_group: False,
             time_reversal: False}

System changes: positions, numbers, cell, pbc, initial_charges, initial_magmoms

Initialize ...

O-setup:
  name: Oxygen
  id: 9b9d51c344dea68c822856295a461509
  Z: 8.0
  valence: 6
  core: 2
  charge: 0.0
  file: /home/modules/software/GPAW-setups/0.9.20000/O.LDA.gz
  compensation charges: gauss, rc=0.21, lmax=2
  cutoffs: 1.17(filt), 0.83(core),
  valence states:
                energy  radius
    2s(2.00)   -23.752   0.688
    2p(4.00)    -9.195   0.598
    *s           3.459   0.688
    *p          18.016   0.598
    *d           0.000   0.619

  Using partial waves for O as LCAO basis

Mn-setup:
  name: Manganese
  id: 0d715a8018be061a6e9ea6f2d364ac92
  Z: 25.0
  valence: 15
  core: 10
  charge: 0.0
  Hubbard U: 3.000000 eV (l=2, scale=True)
  file: /home/modules/software/GPAW-setups/0.9.20000/Mn.LDA.gz
  compensation charges: gauss, rc=0.38, lmax=2
  cutoffs: 2.14(filt), 0.86(core),
  valence states:
                energy  radius
    3s(2.00)   -85.387   1.275
    4s(2.00)    -5.282   1.275
    3p(6.00)   -54.493   1.281
    4p(0.00)    -1.471   1.281
    3d(5.00)    -7.009   1.138
    *d          20.203   1.138

[...]

P-setup:
  name: Phosphorus
  id: a5561c299094968922a179ab894d2e2d
  Z: 15.0
  valence: 5
  core: 10
  charge: 0.0
  file: /home/modules/software/GPAW-setups/0.9.20000/P.LDA.gz
  compensation charges: gauss, rc=0.30, lmax=2
  cutoffs: 1.69(filt), 1.81(core),
  valence states:
                energy  radius
    3s(2.00)   -14.015   0.953
    3p(3.00)    -5.596   0.953
    *s          13.197   0.953
    *p          21.615   0.953
    *d           0.000   0.953

[...]

Li-setup:
  name: Lithium
  id: b73562207f97a71b6967473b66fe8b65
  Z: 3.0
  valence: 1
  core: 2
  charge: 0.0
  file: /home/modules/software/GPAW-setups/0.9.20000/Li.LDA.gz
  compensation charges: gauss, rc=0.33, lmax=2
  cutoffs: 1.91(filt), 2.55(core),
  valence states:
                energy  radius
    2s(1.00)    -2.874   1.058
    2p(0.00)    -1.126   1.058
    *s          24.338   1.058

  Using partial waves for Li as LCAO basis

Reference energy: -196157.275402

Spin-polarized calculation.
Magnetic moment: 0.000000

Convergence criteria:
  Maximum total energy change: 0.0005 eV / electron
  Maximum integral of absolute density change: 0.0001 electrons
  Maximum integral of absolute eigenstate change: 4e-08 eV^2
  Maximum change in atomic force: 1e-06 eV / Ang
  Maximum number of iterations: 333

Symmetries present (total): 1

  ( 1  0  0)
  ( 0  1  0)
  ( 0  0  1)

144 k-points: 6 x 6 x 4 Monkhorst-Pack grid
144 k-points in the irreducible part of the Brillouin zone
       k-points in crystal coordinates                weights
   0:    -0.41666667   -0.41666667   -0.37500000          1/144
   1:    -0.41666667   -0.41666667   -0.12500000          1/144
   2:    -0.41666667   -0.41666667    0.12500000          1/144
   3:    -0.41666667   -0.41666667    0.37500000          1/144
   4:    -0.41666667   -0.25000000   -0.37500000          1/144
   5:    -0.41666667   -0.25000000   -0.12500000          1/144
   6:    -0.41666667   -0.25000000    0.12500000          1/144
   7:    -0.41666667   -0.25000000    0.37500000          1/144
   8:    -0.41666667   -0.08333333   -0.37500000          1/144
   9:    -0.41666667   -0.08333333   -0.12500000          1/144
          ...
 143:     0.41666667    0.41666667    0.37500000          1/144

Wave functions: Plane wave expansion
  Cutoff energy: 600.000 eV
  Number of coefficients (min, max): 9238, 9284
  Pulay-stress correction: 0.000000 eV/Ang^3 (de/decut=0.000000)
  Using FFTW library
  ScaLapack parameters: grid=1x1, blocksize=None
  Wavefunction extrapolation:
    Improved wavefunction reuse through dual PAW basis

  Fermi-Dirac: width=0.0010 eV

Eigensolver
   Davidson(niter=2, smin=None, normalize=True)

Densities:
  Coarse grid: 60*35*27 grid
  Fine grid: 120*70*54 grid
  Total Charge: 0.000000

Density mixing:
  Method: difference
  Backend: pulay
  Linear mixing parameter: 0.05
  Mixing with 5 old densities
  Damping of long wave oscillations: 50

Hamiltonian:
  XC and Coulomb potentials evaluated on a 120*70*54 grid
  Using the LDA Exchange-Correlation functional

Total number of cores used: 64
Parallelization over k-points: 16
Domain decomposition: 2 x 2 x 1

Number of atoms: 28
Number of atomic orbitals: 148
Number of bands in calculation: 112
Number of valence electrons: 180
Bands to converge: occupied

... initialized

Initializing position-dependent things.

Density initialized from atomic densities
Creating initial wave functions:
  112 bands from LCAO basis set

               O     O  P  O
            PO           OMn     O
                  O          MO
            O        Li O
             Mn  On          OP
         O         Li O
         Li     O P         O
       Li

Positions:
   0 O     -1.263197   -2.497779   -1.098475    ( 0.0000,  0.0000,  0.0000)
   1 O     -3.070823    2.922496    1.209491    ( 0.0000,  0.0000,  0.0000)
   2 O      1.985541    0.474863    1.428016    ( 0.0000,  0.0000,  0.0000)
   3 O      3.793120   -0.050100   -0.879950    ( 0.0000,  0.0000,  0.0000)
   4 O      1.985518    2.922485    1.428149    ( 0.0000,  0.0000,  0.0000)
   5 O      3.793144   -2.497790   -0.879818    ( 0.0000,  0.0000,  0.0000)
   6 O     -1.263220   -0.050157   -1.098342    ( 0.0000,  0.0000,  0.0000)
   7 O     -3.070798    0.474805    1.209623    ( 0.0000,  0.0000,  0.0000)
   8 O     -4.167835   -1.273920   -0.862116    ( 0.0000,  0.0000,  0.0000)
   9 O     -0.166037    1.698602    1.445528    ( 0.0000,  0.0000,  0.0000)
  10 O      4.890156    1.698625    1.191790    ( 0.0000,  0.0000,  0.0000)
  11 O      0.888358   -1.273896   -1.115855    ( 0.0000,  0.0000,  0.0000)
  12 Mn    -2.445557   -1.274211    0.312921    ( 0.0000,  0.0000,  1.0000)
  13 Mn    -1.888303    1.698892   -1.994948    ( 0.0000,  0.0000, -1.0000)
  14 Mn     3.167879    1.698917    0.016752    ( 0.0000,  0.0000, -1.0000)
  15 Mn     2.610624   -1.274187    2.324621    ( 0.0000,  0.0000,  1.0000)
  16 P     -0.529549   -1.273917   -1.724376    ( 0.0000,  0.0000,  0.0000)
  17 P     -3.814359    1.698599    0.583463    ( 0.0000,  0.0000,  0.0000)
  18 P      1.251870    1.698623    2.054050    ( 0.0000,  0.0000,  0.0000)
  19 P      4.526680   -1.273894   -0.253789    ( 0.0000,  0.0000,  0.0000)
  20 O     -0.544227   -1.273926    1.365380    ( 0.0000,  0.0000,  0.0000)
  21 O     -3.789411    1.698610   -0.942222    ( 0.0000,  0.0000,  0.0000)
  22 O      1.266548    1.698631   -1.035707    ( 0.0000,  0.0000,  0.0000)
  23 O      4.511733   -1.273905    1.271895    ( 0.0000,  0.0000,  0.0000)
  24 Li    -4.695087   -2.760584   -2.142877    ( 0.0000,  0.0000,  0.0000)
  25 Li     0.361147   -2.760561    0.164836    ( 0.0000,  0.0000,  0.0000)
  26 Li    -4.695074    0.212330   -2.142877    ( 0.0000,  0.0000,  0.0000)
  27 Li     0.361161    0.212353    0.164837    ( 0.0000,  0.0000,  0.0000)

Unit cell:
           periodic     x           y           z      points  spacing
  1. axis:    yes   10.112485    0.000045   -0.000035    60     0.1685
  2. axis:    yes    0.000026    5.945827    0.000001    35     0.1699
  3. axis:    yes   -0.000016    0.000000    4.615463    27     0.1709

  Lengths:  10.112485   5.945827   4.615463
  Angles:   89.999989  90.000396  89.999490

Effective grid spacing dv^(1/3) = 0.1698

                     log10-error:           total        iterations:
           time      wfs    density  force  energy       poisson  magmom
iter:   1  05:01:14                       -221.367830             +0.0000
iter:   2  05:01:34  -0.61  -0.93         -234.829435             +0.0000
iter:   3  05:01:54  -0.37  -0.97         -225.908634             -0.0000
iter:   4  05:02:13  -1.39  -1.29         -225.758329             +0.0000
iter:   5  05:02:33  -1.27  -1.39         -227.330112             +0.0000
iter:   6  05:02:53  -1.47  -1.46         -225.733927             +0.0000
iter:   7  05:03:13  -2.49  -2.04         -225.722644             +0.0000
iter:   8  05:03:33  -2.31  -2.00         -225.537458             +0.0000
iter:   9  05:03:53  -2.53  -2.18         -225.433267             +0.0000
iter:  10  05:04:12  -3.25  -2.52         -225.419691             +0.0000
iter:  11  05:04:32  -3.38  -2.84         -225.410234             +0.0000
iter:  12  05:04:52  -4.36  -2.99         -225.407999             +0.0000
iter:  13  05:05:12  -5.42  -3.29         -225.407984             +0.0000
iter:  14  05:05:31  -5.24  -3.31         -225.407780             +0.0000
iter:  15  05:05:51  -5.55  -3.45         -225.407987             +0.0000
iter:  16  05:06:11  -5.11  -3.45         -225.408080             +0.0000
iter:  17  05:06:31  -5.25  -3.64         -225.407751             +0.0000
iter:  18  05:06:51  -6.35  -4.17         -225.407751             +0.0000
iter:  19  05:07:15  -7.46  -4.26         -225.407750             +0.0000
iter:  20  05:07:35  -7.25  -4.30         -225.407750             +0.0000
iter:  21  05:07:55  -7.13  -4.40         -225.407747             -0.0000
iter:  22  05:08:19  -7.89  -4.49    -2.14-225.407747             -0.0000
iter:  23  05:08:44  -7.40  -4.56    -2.18-225.407747             -0.0000
iter:  24  05:09:08  -8.46  -5.03    -3.29-225.407747             -0.0000
iter:  25  05:09:33  -8.54  -5.10    -3.12-225.407747             -0.0000
iter:  26  05:09:57  -9.58  -5.20    -3.62-225.407747             -0.0000
iter:  27  05:10:22  -9.97  -5.25    -3.31-225.407747             -0.0000
iter:  28  05:10:46  -9.13  -5.31    -3.06-225.407747             -0.0000
iter:  29  05:11:11  -9.42  -5.44    -3.41-225.407747             -0.0000
iter:  30  05:11:35  -9.95  -5.82    -3.85-225.407747             -0.0000
iter:  31  05:12:00 -10.33  -6.11    -4.19-225.407747             -0.0000
iter:  32  05:12:24 -10.26  -6.26    -4.07-225.407747             -0.0000
iter:  33  05:12:49 -10.82  -6.35    -4.39-225.407747             -0.0000
iter:  34  05:13:13 -11.19  -6.43    -4.23-225.407747             -0.0000
iter:  35  05:13:38 -10.95  -6.58    -4.43-225.407747             -0.0000
iter:  36  05:14:02 -11.88  -6.86    -5.38-225.407747             -0.0000
iter:  37  05:14:27 -12.06  -6.92    -5.09-225.407747             -0.0000
iter:  38  05:14:51 -12.58  -6.98    -5.43-225.407747             -0.0000
iter:  39  05:15:16 -13.01  -7.03    -4.74-225.407747             -0.0000
iter:  40  05:15:40 -12.41  -7.18    -4.80-225.407747             -0.0000
iter:  41  05:16:05 -13.21  -7.24    -5.44-225.407747             -0.0000
iter:  42  05:16:29 -12.58  -7.28    -5.04-225.407747             -0.0000
iter:  43  05:16:54 -12.69  -7.45    -5.21-225.407747             -0.0000
iter:  44  05:17:18 -13.59  -7.48    -5.26-225.407747             -0.0000
iter:  45  05:17:43 -14.34  -7.65    -5.79-225.407747             -0.0000
iter:  46  05:18:07 -13.90  -7.71    -5.53-225.407747             -0.0000
iter:  47  05:18:32 -13.85  -7.79    -5.80-225.407747             -0.0000
iter:  48  05:18:56 -14.34  -7.83    -5.57-225.407747             -0.0000
iter:  49  05:19:21 -15.21  -7.92    -6.41-225.407747             -0.0000

Converged after 49 iterations.

Dipole moment: (19.041625, -1.433437, -4.182749) |e|*Ang

Total magnetic moment: (0.000000, 0.000000, -0.000000)
Local magnetic moments:
   0 O  ( 0.000000,  0.000000,  0.000687)
   1 O  ( 0.000000,  0.000000, -0.000519)
   2 O  ( 0.000000,  0.000000, -0.000707)
   3 O  ( 0.000000,  0.000000,  0.000598)
   4 O  ( 0.000000,  0.000000, -0.000711)
   5 O  ( 0.000000,  0.000000,  0.000602)
   6 O  ( 0.000000,  0.000000,  0.000683)
   7 O  ( 0.000000,  0.000000, -0.000515)
   8 O  ( 0.000000,  0.000000,  0.022270)
   9 O  ( 0.000000,  0.000000, -0.022309)
  10 O  ( 0.000000,  0.000000, -0.022221)
  11 O  ( 0.000000,  0.000000,  0.022437)
  12 Mn ( 0.000000,  0.000000,  4.574928)
  13 Mn ( 0.000000,  0.000000, -4.575178)
  14 Mn ( 0.000000,  0.000000, -4.575155)
  15 Mn ( 0.000000,  0.000000,  4.575014)
  16 P  ( 0.000000,  0.000000,  0.000808)
  17 P  ( 0.000000,  0.000000, -0.000954)
  18 P  ( 0.000000,  0.000000, -0.000816)
  19 P  ( 0.000000,  0.000000,  0.000843)
  20 O  ( 0.000000,  0.000000,  0.020693)
  21 O  ( 0.000000,  0.000000, -0.020544)
  22 O  ( 0.000000,  0.000000, -0.020795)
  23 O  ( 0.000000,  0.000000,  0.020697)
  24 Li ( 0.000000,  0.000000,  0.000016)
  25 Li ( 0.000000,  0.000000, -0.000001)
  26 Li ( 0.000000,  0.000000,  0.000016)
  27 Li ( 0.000000,  0.000000, -0.000001)

Energy contributions relative to reference atoms: (reference = -196157.275402)

Kinetic:       +296.880701
Potential:     -256.418047
External:        +0.000000
XC:            -267.651124
Entropy (-ST):   -0.000000
Local:           +1.780723
Free energy:   -225.407747
Extrapolated:  -225.407747

Spin contamination: 9.697102 electrons
Showing only first 2 kpts
                      Up                     Down
 Kpt  Band  Eigenvalues  Occupancy  Eigenvalues  Occupancy
  0    88      5.11215    0.00694      5.09714    0.00694
  0    89      5.16971    0.00694      5.15938    0.00694
  0    90      9.63761    0.00000      9.65606    0.00000
  0    91      9.69100    0.00000      9.67593    0.00000

  1    88      5.12363    0.00694      5.10851    0.00694
  1    89      5.17912    0.00694      5.16935    0.00694
  1    90      9.51835    0.00000      9.53557    0.00000
  1    91      9.56850    0.00000      9.55326    0.00000

Fermi level: 6.37043

Gap: 3.791 eV
Transition (v -> c):
  (s=0, k=75, n=89, [0.08, -0.42, 0.38]) -> (s=1, k=58, n=90, [-0.08, -0.08, 0.12])
Writing to born-0.01-17x-.gpw (mode='all')