User:   madkru@g035.nifl.fysik.dtu.dk
Date:   Mon Mar 22 20:55:18 2021
Arch:   x86_64
Pid:    44316
Python: 3.7.4
gpaw:   /home/niflheim/madkru/venv_folder/gpaw/gpaw (d0d1ca1c71)
_gpaw:  /home/niflheim/madkru/venv_folder/gpaw/build/lib.linux-x86_64-sandybridge-3.7/
        _gpaw.cpython-37m-x86_64-linux-gnu.so (4fd39e8b1e)
ase:    /home/niflheim/madkru/venv_folder/ase/ase (version 3.21.0b1-7e6c206a91)
numpy:  /home/niflheim/madkru/venv_folder/lib/python3.7/site-packages/numpy (version 1.19.4)
scipy:  /home/niflheim/madkru/venv_folder/lib/python3.7/site-packages/scipy (version 1.5.4)
units:  Angstrom and eV
cores: 32
OMP_NUM_THREADS: 1

Input parameters:
  convergence: {bands: occupied,
                density: 0.0001,
                eigenstates: 4e-08,
                energy: 0.0005,
                forces: 1e-06}
  kpts: [6 6 4]
  mode: {ecut: 600.0,
         gammacentered: False,
         name: pw}
  occupations: {fixmagmom: False,
                name: fermi-dirac,
                width: 0.001}
  setups: {Mn: :d,3.0}
  symmetry: {point_group: False,
             time_reversal: False}

System changes: positions, numbers, cell, pbc, initial_charges, initial_magmoms

Initialize ...

O-setup:
  name: Oxygen
  id: 9b9d51c344dea68c822856295a461509
  Z: 8.0
  valence: 6
  core: 2
  charge: 0.0
  file: /home/modules/software/GPAW-setups/0.9.20000/O.LDA.gz
  compensation charges: gauss, rc=0.21, lmax=2
  cutoffs: 1.17(filt), 0.83(core),
  valence states:
                energy  radius
    2s(2.00)   -23.752   0.688
    2p(4.00)    -9.195   0.598
    *s           3.459   0.688
    *p          18.016   0.598
    *d           0.000   0.619

  Using partial waves for O as LCAO basis

Mn-setup:
  name: Manganese
  id: 0d715a8018be061a6e9ea6f2d364ac92
  Z: 25.0
  valence: 15
  core: 10
  charge: 0.0
  Hubbard U: 3.000000 eV (l=2, scale=True)
  file: /home/modules/software/GPAW-setups/0.9.20000/Mn.LDA.gz
  compensation charges: gauss, rc=0.38, lmax=2
  cutoffs: 2.14(filt), 0.86(core),
  valence states:
                energy  radius
    3s(2.00)   -85.387   1.275
    4s(2.00)    -5.282   1.275
    3p(6.00)   -54.493   1.281
    4p(0.00)    -1.471   1.281
    3d(5.00)    -7.009   1.138
    *d          20.203   1.138

[...]

P-setup:
  name: Phosphorus
  id: a5561c299094968922a179ab894d2e2d
  Z: 15.0
  valence: 5
  core: 10
  charge: 0.0
  file: /home/modules/software/GPAW-setups/0.9.20000/P.LDA.gz
  compensation charges: gauss, rc=0.30, lmax=2
  cutoffs: 1.69(filt), 1.81(core),
  valence states:
                energy  radius
    3s(2.00)   -14.015   0.953
    3p(3.00)    -5.596   0.953
    *s          13.197   0.953
    *p          21.615   0.953
    *d           0.000   0.953

[...]

Li-setup:
  name: Lithium
  id: b73562207f97a71b6967473b66fe8b65
  Z: 3.0
  valence: 1
  core: 2
  charge: 0.0
  file: /home/modules/software/GPAW-setups/0.9.20000/Li.LDA.gz
  compensation charges: gauss, rc=0.33, lmax=2
  cutoffs: 1.91(filt), 2.55(core),
  valence states:
                energy  radius
    2s(1.00)    -2.874   1.058
    2p(0.00)    -1.126   1.058
    *s          24.338   1.058

  Using partial waves for Li as LCAO basis

Reference energy: -196157.275402

Spin-polarized calculation.
Magnetic moment: 0.000000

Convergence criteria:
  Maximum total energy change: 0.0005 eV / electron
  Maximum integral of absolute density change: 0.0001 electrons
  Maximum integral of absolute eigenstate change: 4e-08 eV^2
  Maximum change in atomic force: 1e-06 eV / Ang
  Maximum number of iterations: 333

Symmetries present (total): 1

  ( 1  0  0)
  ( 0  1  0)
  ( 0  0  1)

144 k-points: 6 x 6 x 4 Monkhorst-Pack grid
144 k-points in the irreducible part of the Brillouin zone
       k-points in crystal coordinates                weights
   0:    -0.41666667   -0.41666667   -0.37500000          1/144
   1:    -0.41666667   -0.41666667   -0.12500000          1/144
   2:    -0.41666667   -0.41666667    0.12500000          1/144
   3:    -0.41666667   -0.41666667    0.37500000          1/144
   4:    -0.41666667   -0.25000000   -0.37500000          1/144
   5:    -0.41666667   -0.25000000   -0.12500000          1/144
   6:    -0.41666667   -0.25000000    0.12500000          1/144
   7:    -0.41666667   -0.25000000    0.37500000          1/144
   8:    -0.41666667   -0.08333333   -0.37500000          1/144
   9:    -0.41666667   -0.08333333   -0.12500000          1/144
          ...
 143:     0.41666667    0.41666667    0.37500000          1/144

Wave functions: Plane wave expansion
  Cutoff energy: 600.000 eV
  Number of coefficients (min, max): 9238, 9284
  Pulay-stress correction: 0.000000 eV/Ang^3 (de/decut=0.000000)
  Using FFTW library
  ScaLapack parameters: grid=1x1, blocksize=None
  Wavefunction extrapolation:
    Improved wavefunction reuse through dual PAW basis

  Fermi-Dirac: width=0.0010 eV

Eigensolver
   Davidson(niter=2, smin=None, normalize=True)

Densities:
  Coarse grid: 60*35*27 grid
  Fine grid: 120*70*54 grid
  Total Charge: 0.000000

Density mixing:
  Method: difference
  Backend: pulay
  Linear mixing parameter: 0.05
  Mixing with 5 old densities
  Damping of long wave oscillations: 50

Hamiltonian:
  XC and Coulomb potentials evaluated on a 120*70*54 grid
  Using the LDA Exchange-Correlation functional

Total number of cores used: 32
Parallelization over k-points: 16
Domain decomposition: 2 x 1 x 1

Number of atoms: 28
Number of atomic orbitals: 148
Number of bands in calculation: 112
Number of valence electrons: 180
Bands to converge: occupied

... initialized

Initializing position-dependent things.

Density initialized from atomic densities
Creating initial wave functions:
  112 bands from LCAO basis set

               O     O  P  O
            PO           OMn     O
                  O          MO
            O        Li O
             Mn  On          OP
         O         Li O
         Li     O P         O
       Li

Positions:
   0 O     -1.263197   -2.497779   -1.098475    ( 0.0000,  0.0000,  0.0000)
   1 O     -3.070823    2.922496    1.209491    ( 0.0000,  0.0000,  0.0000)
   2 O      1.985541    0.474863    1.428016    ( 0.0000,  0.0000,  0.0000)
   3 O      3.793120   -0.050100   -0.879950    ( 0.0000,  0.0000,  0.0000)
   4 O      1.985518    2.922485    1.428149    ( 0.0000,  0.0000,  0.0000)
   5 O      3.793144   -2.497790   -0.879818    ( 0.0000,  0.0000,  0.0000)
   6 O     -1.263220   -0.050157   -1.098342    ( 0.0000,  0.0000,  0.0000)
   7 O     -3.070798    0.474805    1.209623    ( 0.0000,  0.0000,  0.0000)
   8 O     -4.167835   -1.273920   -0.872116    ( 0.0000,  0.0000,  0.0000)
   9 O     -0.166037    1.698602    1.445528    ( 0.0000,  0.0000,  0.0000)
  10 O      4.890156    1.698625    1.191790    ( 0.0000,  0.0000,  0.0000)
  11 O      0.888358   -1.273896   -1.115855    ( 0.0000,  0.0000,  0.0000)
  12 Mn    -2.445557   -1.274211    0.312921    ( 0.0000,  0.0000,  1.0000)
  13 Mn    -1.888303    1.698892   -1.994948    ( 0.0000,  0.0000, -1.0000)
  14 Mn     3.167879    1.698917    0.016752    ( 0.0000,  0.0000, -1.0000)
  15 Mn     2.610624   -1.274187    2.324621    ( 0.0000,  0.0000,  1.0000)
  16 P     -0.529549   -1.273917   -1.724376    ( 0.0000,  0.0000,  0.0000)
  17 P     -3.804359    1.698599    0.583463    ( 0.0000,  0.0000,  0.0000)
  18 P      1.251870    1.698623    2.054050    ( 0.0000,  0.0000,  0.0000)
  19 P      4.526680   -1.273894   -0.253789    ( 0.0000,  0.0000,  0.0000)
  20 O     -0.544227   -1.273926    1.365380    ( 0.0000,  0.0000,  0.0000)
  21 O     -3.789411    1.698610   -0.942222    ( 0.0000,  0.0000,  0.0000)
  22 O      1.266548    1.698631   -1.035707    ( 0.0000,  0.0000,  0.0000)
  23 O      4.511733   -1.273905    1.271895    ( 0.0000,  0.0000,  0.0000)
  24 Li    -4.695087   -2.760584   -2.142877    ( 0.0000,  0.0000,  0.0000)
  25 Li     0.361147   -2.760561    0.164836    ( 0.0000,  0.0000,  0.0000)
  26 Li    -4.695074    0.212330   -2.142877    ( 0.0000,  0.0000,  0.0000)
  27 Li     0.361161    0.212353    0.164837    ( 0.0000,  0.0000,  0.0000)

Unit cell:
           periodic     x           y           z      points  spacing
  1. axis:    yes   10.112485    0.000045   -0.000035    60     0.1685
  2. axis:    yes    0.000026    5.945827    0.000001    35     0.1699
  3. axis:    yes   -0.000016    0.000000    4.615463    27     0.1709

  Lengths:  10.112485   5.945827   4.615463
  Angles:   89.999989  90.000396  89.999490

Effective grid spacing dv^(1/3) = 0.1698

                     log10-error:           total        iterations:
           time      wfs    density  force  energy       poisson  magmom
iter:   1  20:58:33                       -221.381751             +0.0000
iter:   2  20:59:10  -0.61  -0.93         -234.846079             +0.0000
iter:   3  20:59:48  -0.37  -0.97         -225.913826             -0.0000
iter:   4  21:00:25  -1.39  -1.29         -225.761991             +0.0000
iter:   5  21:01:03  -1.27  -1.39         -227.333161             +0.0000
iter:   6  21:01:40  -1.46  -1.46         -225.736951             +0.0000
iter:   7  21:02:18  -2.46  -2.04         -225.723860             +0.0000
iter:   8  21:02:55  -2.09  -1.99         -225.610027             +0.0000
iter:   9  21:03:33  -2.44  -2.06         -225.429952             +0.0000
iter:  10  21:04:11  -3.31  -2.57         -225.420847             +0.0000
iter:  11  21:04:48  -3.73  -2.84         -225.411917             +0.0000
iter:  12  21:05:26  -4.15  -3.03         -225.410583             +0.0000
iter:  13  21:06:04  -5.09  -3.28         -225.410419             +0.0000
iter:  14  21:06:41  -5.23  -3.33         -225.410313             +0.0000
iter:  15  21:07:19  -6.09  -3.43         -225.410254             +0.0000
iter:  16  21:07:56  -5.40  -3.47         -225.410347             -0.0000
iter:  17  21:08:34  -5.18  -3.61         -225.410298             +0.0000
iter:  18  21:09:11  -5.93  -3.84         -225.410209             -0.0000
iter:  19  21:09:49  -7.01  -4.33         -225.410208             -0.0000
iter:  20  21:10:26  -6.50  -4.35         -225.410215             -0.0000
iter:  21  21:11:04  -6.96  -4.24         -225.410206             -0.0000
iter:  22  21:11:51  -8.05  -4.65         -225.410206             -0.0000
iter:  23  21:12:39  -7.69  -4.76    -2.56-225.410205             -0.0000
iter:  24  21:13:26  -8.56  -5.13    -3.10-225.410205             -0.0000
iter:  25  21:14:13  -8.75  -5.17    -2.92-225.410205             -0.0000
iter:  26  21:15:01  -9.45  -5.60    -3.34-225.410205             -0.0000
iter:  27  21:15:48  -9.79  -5.87    -3.59-225.410205             -0.0000
iter:  28  21:16:35 -10.68  -5.96    -3.90-225.410205             -0.0000
iter:  29  21:17:22 -11.29  -6.18    -4.47-225.410205             -0.0000
iter:  30  21:18:10 -11.09  -6.23    -4.07-225.410205             -0.0000
iter:  31  21:18:57 -10.86  -6.32    -3.80-225.410205             -0.0000
iter:  32  21:19:44 -12.15  -6.57    -4.75-225.410205             -0.0000
iter:  33  21:20:31 -10.76  -6.59    -3.99-225.410205             -0.0000
iter:  34  21:21:19 -11.10  -6.49    -3.88-225.410205             -0.0000
iter:  35  21:22:06 -12.47  -7.00    -4.76-225.410205             -0.0000
iter:  36  21:22:53 -12.02  -7.05    -4.35-225.410205             -0.0000
iter:  37  21:23:40 -12.23  -7.00    -4.49-225.410205             -0.0000
iter:  38  21:24:28 -13.49  -7.32    -5.87-225.410205             -0.0000
iter:  39  21:25:15 -13.27  -7.37    -5.22-225.410205             -0.0000
iter:  40  21:26:03 -13.44  -7.48    -5.17-225.410205             -0.0000
iter:  41  21:26:50 -13.29  -7.56    -5.02-225.410205             -0.0000
iter:  42  21:27:37 -14.26  -7.81    -6.33-225.410205             -0.0000

Converged after 42 iterations.

Dipole moment: (19.051998, -1.427011, -4.206948) |e|*Ang

Total magnetic moment: (0.000000, 0.000000, -0.000000)
Local magnetic moments:
   0 O  ( 0.000000,  0.000000,  0.000652)
   1 O  ( 0.000000,  0.000000, -0.000707)
   2 O  ( 0.000000,  0.000000, -0.000662)
   3 O  ( 0.000000,  0.000000,  0.000620)
   4 O  ( 0.000000,  0.000000, -0.000666)
   5 O  ( 0.000000,  0.000000,  0.000624)
   6 O  ( 0.000000,  0.000000,  0.000648)
   7 O  ( 0.000000,  0.000000, -0.000702)
   8 O  ( 0.000000,  0.000000,  0.022350)
   9 O  ( 0.000000,  0.000000, -0.022362)
  10 O  ( 0.000000,  0.000000, -0.022382)
  11 O  ( 0.000000,  0.000000,  0.022389)
  12 Mn ( 0.000000,  0.000000,  4.575502)
  13 Mn ( 0.000000,  0.000000, -4.575049)
  14 Mn ( 0.000000,  0.000000, -4.575069)
  15 Mn ( 0.000000,  0.000000,  4.574980)
  16 P  ( 0.000000,  0.000000,  0.000805)
  17 P  ( 0.000000,  0.000000, -0.000827)
  18 P  ( 0.000000,  0.000000, -0.000818)
  19 P  ( 0.000000,  0.000000,  0.000754)
  20 O  ( 0.000000,  0.000000,  0.020752)
  21 O  ( 0.000000,  0.000000, -0.020714)
  22 O  ( 0.000000,  0.000000, -0.020715)
  23 O  ( 0.000000,  0.000000,  0.020623)
  24 Li ( 0.000000,  0.000000,  0.000005)
  25 Li ( 0.000000,  0.000000, -0.000000)
  26 Li ( 0.000000,  0.000000,  0.000005)
  27 Li ( 0.000000,  0.000000, -0.000000)

Energy contributions relative to reference atoms: (reference = -196157.275402)

Kinetic:       +296.484832
Potential:     -256.102603
External:        +0.000000
XC:            -267.574463
Entropy (-ST):   -0.000000
Local:           +1.782028
Free energy:   -225.410205
Extrapolated:  -225.410205

Spin contamination: 9.697374 electrons
Showing only first 2 kpts
                      Up                     Down
 Kpt  Band  Eigenvalues  Occupancy  Eigenvalues  Occupancy
  0    88      5.10265    0.00694      5.10917    0.00694
  0    89      5.15510    0.00694      5.16087    0.00694
  0    90      9.65180    0.00000      9.65005    0.00000
  0    91      9.67085    0.00000      9.66803    0.00000

  1    88      5.11456    0.00694      5.12089    0.00694
  1    89      5.16390    0.00694      5.17024    0.00694
  1    90      9.53391    0.00000      9.53402    0.00000
  1    91      9.54479    0.00000      9.54249    0.00000

Fermi level: 6.36961

Gap: 3.793 eV
Transition (v -> c):
  (s=1, k=68, n=89, [-0.08, 0.42, -0.38]) -> (s=0, k=86, n=90, [0.08, 0.08, 0.12])
Writing to born-0.01-8z-.gpw (mode='all')