User:   madkru@i018.nifl.fysik.dtu.dk
Date:   Thu Mar 25 05:38:38 2021
Arch:   x86_64
Pid:    26873
Python: 3.7.4
gpaw:   /home/niflheim/madkru/venv_folder/gpaw/gpaw (d224efde0f)
_gpaw:  /home/niflheim/madkru/venv_folder/gpaw/build/lib.linux-x86_64-ivybridge-3.7/
        _gpaw.cpython-37m-x86_64-linux-gnu.so (4fd39e8b1e)
ase:    /home/niflheim/madkru/venv_folder/ase/ase (version 3.21.0b1-4d5a73cb29)
numpy:  /home/niflheim/madkru/venv_folder/lib/python3.7/site-packages/numpy (version 1.19.4)
scipy:  /home/niflheim/madkru/venv_folder/lib/python3.7/site-packages/scipy (version 1.5.4)
units:  Angstrom and eV
cores: 64
OMP_NUM_THREADS: 1

Input parameters:
  convergence: {bands: occupied,
                density: 0.0001,
                eigenstates: 4e-08,
                energy: 0.0005,
                forces: 1e-06}
  kpts: [6 6 4]
  mode: {ecut: 600.0,
         gammacentered: False,
         name: pw}
  occupations: {fixmagmom: False,
                name: fermi-dirac,
                width: 0.001}
  setups: {Mn: :d,3.0}
  symmetry: {point_group: False,
             time_reversal: False}

System changes: positions, numbers, cell, pbc, initial_charges, initial_magmoms

Initialize ...

O-setup:
  name: Oxygen
  id: 9b9d51c344dea68c822856295a461509
  Z: 8.0
  valence: 6
  core: 2
  charge: 0.0
  file: /home/modules/software/GPAW-setups/0.9.20000/O.LDA.gz
  compensation charges: gauss, rc=0.21, lmax=2
  cutoffs: 1.17(filt), 0.83(core),
  valence states:
                energy  radius
    2s(2.00)   -23.752   0.688
    2p(4.00)    -9.195   0.598
    *s           3.459   0.688
    *p          18.016   0.598
    *d           0.000   0.619

  Using partial waves for O as LCAO basis

Mn-setup:
  name: Manganese
  id: 0d715a8018be061a6e9ea6f2d364ac92
  Z: 25.0
  valence: 15
  core: 10
  charge: 0.0
  Hubbard U: 3.000000 eV (l=2, scale=True)
  file: /home/modules/software/GPAW-setups/0.9.20000/Mn.LDA.gz
  compensation charges: gauss, rc=0.38, lmax=2
  cutoffs: 2.14(filt), 0.86(core),
  valence states:
                energy  radius
    3s(2.00)   -85.387   1.275
    4s(2.00)    -5.282   1.275
    3p(6.00)   -54.493   1.281
    4p(0.00)    -1.471   1.281
    3d(5.00)    -7.009   1.138
    *d          20.203   1.138

[...]

P-setup:
  name: Phosphorus
  id: a5561c299094968922a179ab894d2e2d
  Z: 15.0
  valence: 5
  core: 10
  charge: 0.0
  file: /home/modules/software/GPAW-setups/0.9.20000/P.LDA.gz
  compensation charges: gauss, rc=0.30, lmax=2
  cutoffs: 1.69(filt), 1.81(core),
  valence states:
                energy  radius
    3s(2.00)   -14.015   0.953
    3p(3.00)    -5.596   0.953
    *s          13.197   0.953
    *p          21.615   0.953
    *d           0.000   0.953

[...]

Li-setup:
  name: Lithium
  id: b73562207f97a71b6967473b66fe8b65
  Z: 3.0
  valence: 1
  core: 2
  charge: 0.0
  file: /home/modules/software/GPAW-setups/0.9.20000/Li.LDA.gz
  compensation charges: gauss, rc=0.33, lmax=2
  cutoffs: 1.91(filt), 2.55(core),
  valence states:
                energy  radius
    2s(1.00)    -2.874   1.058
    2p(0.00)    -1.126   1.058
    *s          24.338   1.058

  Using partial waves for Li as LCAO basis

Reference energy: -196157.275402

Spin-polarized calculation.
Magnetic moment: 0.000000

Convergence criteria:
  Maximum total energy change: 0.0005 eV / electron
  Maximum integral of absolute density change: 0.0001 electrons
  Maximum integral of absolute eigenstate change: 4e-08 eV^2
  Maximum change in atomic force: 1e-06 eV / Ang
  Maximum number of iterations: 333

Symmetries present (total): 1

  ( 1  0  0)
  ( 0  1  0)
  ( 0  0  1)

144 k-points: 6 x 6 x 4 Monkhorst-Pack grid
144 k-points in the irreducible part of the Brillouin zone
       k-points in crystal coordinates                weights
   0:    -0.41666667   -0.41666667   -0.37500000          1/144
   1:    -0.41666667   -0.41666667   -0.12500000          1/144
   2:    -0.41666667   -0.41666667    0.12500000          1/144
   3:    -0.41666667   -0.41666667    0.37500000          1/144
   4:    -0.41666667   -0.25000000   -0.37500000          1/144
   5:    -0.41666667   -0.25000000   -0.12500000          1/144
   6:    -0.41666667   -0.25000000    0.12500000          1/144
   7:    -0.41666667   -0.25000000    0.37500000          1/144
   8:    -0.41666667   -0.08333333   -0.37500000          1/144
   9:    -0.41666667   -0.08333333   -0.12500000          1/144
          ...
 143:     0.41666667    0.41666667    0.37500000          1/144

Wave functions: Plane wave expansion
  Cutoff energy: 600.000 eV
  Number of coefficients (min, max): 9238, 9284
  Pulay-stress correction: 0.000000 eV/Ang^3 (de/decut=0.000000)
  Using FFTW library
  ScaLapack parameters: grid=1x1, blocksize=None
  Wavefunction extrapolation:
    Improved wavefunction reuse through dual PAW basis

  Fermi-Dirac: width=0.0010 eV

Eigensolver
   Davidson(niter=2, smin=None, normalize=True)

Densities:
  Coarse grid: 60*35*27 grid
  Fine grid: 120*70*54 grid
  Total Charge: 0.000000

Density mixing:
  Method: difference
  Backend: pulay
  Linear mixing parameter: 0.05
  Mixing with 5 old densities
  Damping of long wave oscillations: 50

Hamiltonian:
  XC and Coulomb potentials evaluated on a 120*70*54 grid
  Using the LDA Exchange-Correlation functional

Total number of cores used: 64
Parallelization over k-points: 16
Domain decomposition: 2 x 2 x 1

Number of atoms: 28
Number of atomic orbitals: 148
Number of bands in calculation: 112
Number of valence electrons: 180
Bands to converge: occupied

... initialized

Initializing position-dependent things.

Density initialized from atomic densities
Creating initial wave functions:
  112 bands from LCAO basis set

               O     O  P  O
            PO           OMn     O
                  O          MO
            O        Li O
             Mn  On          OP
         O         Li O
         Li     O P         O
       Li

Positions:
   0 O     -1.263197   -2.497779   -1.098475    ( 0.0000,  0.0000,  0.0000)
   1 O     -3.070823    2.922496    1.209491    ( 0.0000,  0.0000,  0.0000)
   2 O      1.985541    0.474863    1.428016    ( 0.0000,  0.0000,  0.0000)
   3 O      3.793120   -0.050100   -0.879950    ( 0.0000,  0.0000,  0.0000)
   4 O      1.985518    2.922485    1.428149    ( 0.0000,  0.0000,  0.0000)
   5 O      3.793144   -2.497790   -0.879818    ( 0.0000,  0.0000,  0.0000)
   6 O     -1.263220   -0.050157   -1.098342    ( 0.0000,  0.0000,  0.0000)
   7 O     -3.070798    0.474805    1.209623    ( 0.0000,  0.0000,  0.0000)
   8 O     -4.167835   -1.273920   -0.862116    ( 0.0000,  0.0000,  0.0000)
   9 O     -0.166037    1.698602    1.445528    ( 0.0000,  0.0000,  0.0000)
  10 O      4.890156    1.698625    1.191790    ( 0.0000,  0.0000,  0.0000)
  11 O      0.888358   -1.273896   -1.115855    ( 0.0000,  0.0000,  0.0000)
  12 Mn    -2.445557   -1.274211    0.312921    ( 0.0000,  0.0000,  1.0000)
  13 Mn    -1.888303    1.698892   -1.994948    ( 0.0000,  0.0000, -1.0000)
  14 Mn     3.167879    1.698917    0.016752    ( 0.0000,  0.0000, -1.0000)
  15 Mn     2.610624   -1.274187    2.324621    ( 0.0000,  0.0000,  1.0000)
  16 P     -0.529549   -1.273917   -1.724376    ( 0.0000,  0.0000,  0.0000)
  17 P     -3.804359    1.698599    0.583463    ( 0.0000,  0.0000,  0.0000)
  18 P      1.251870    1.698623    2.054050    ( 0.0000,  0.0000,  0.0000)
  19 P      4.526680   -1.273894   -0.253789    ( 0.0000,  0.0000,  0.0000)
  20 O     -0.544227   -1.273926    1.365380    ( 0.0000,  0.0000,  0.0000)
  21 O     -3.789411    1.698610   -0.942222    ( 0.0000,  0.0000,  0.0000)
  22 O      1.266548    1.698631   -1.035707    ( 0.0000,  0.0000,  0.0000)
  23 O      4.511733   -1.273905    1.271895    ( 0.0000,  0.0000,  0.0000)
  24 Li    -4.695087   -2.760584   -2.142877    ( 0.0000,  0.0000,  0.0000)
  25 Li     0.361147   -2.750561    0.164836    ( 0.0000,  0.0000,  0.0000)
  26 Li    -4.695074    0.212330   -2.142877    ( 0.0000,  0.0000,  0.0000)
  27 Li     0.361161    0.212353    0.164837    ( 0.0000,  0.0000,  0.0000)

Unit cell:
           periodic     x           y           z      points  spacing
  1. axis:    yes   10.112485    0.000045   -0.000035    60     0.1685
  2. axis:    yes    0.000026    5.945827    0.000001    35     0.1699
  3. axis:    yes   -0.000016    0.000000    4.615463    27     0.1709

  Lengths:  10.112485   5.945827   4.615463
  Angles:   89.999989  90.000396  89.999490

Effective grid spacing dv^(1/3) = 0.1698

                     log10-error:           total        iterations:
           time      wfs    density  force  energy       poisson  magmom
iter:   1  05:40:13                       -221.376776             +0.0000
iter:   2  05:40:33  -0.61  -0.93         -234.836068             +0.0000
iter:   3  05:40:53  -0.37  -0.97         -225.912130             -0.0000
iter:   4  05:41:13  -1.39  -1.29         -225.761659             +0.0000
iter:   5  05:41:33  -1.27  -1.39         -227.329891             +0.0000
iter:   6  05:41:53  -1.46  -1.46         -225.737461             +0.0000
iter:   7  05:42:13  -2.47  -2.04         -225.724885             +0.0000
iter:   8  05:42:33  -2.14  -1.99         -225.590495             +0.0000
iter:   9  05:42:53  -2.46  -2.09         -225.432510             +0.0000
iter:  10  05:43:12  -3.31  -2.55         -225.422570             +0.0000
iter:  11  05:43:32  -3.65  -2.81         -225.412134             +0.0000
iter:  12  05:43:52  -4.12  -3.05         -225.411029             +0.0000
iter:  13  05:44:12  -5.10  -3.29         -225.410908             -0.0000
iter:  14  05:44:32  -5.39  -3.32         -225.410735             -0.0000
iter:  15  05:44:52  -6.04  -3.43         -225.410741             -0.0000
iter:  16  05:45:12  -5.24  -3.47         -225.411085             +0.0000
iter:  17  05:45:32  -5.87  -3.58         -225.410969             -0.0000
iter:  18  05:45:52  -5.21  -3.70         -225.410684             +0.0000
iter:  19  05:46:12  -6.10  -4.14         -225.410687             +0.0000
iter:  20  05:46:32  -7.28  -4.54         -225.410689             +0.0000
iter:  21  05:46:57  -8.09  -4.57         -225.410689             +0.0000
iter:  22  05:47:22  -7.85  -4.63    -2.33-225.410689             +0.0000
iter:  23  05:47:46  -8.17  -4.90    -2.69-225.410689             +0.0000
iter:  24  05:48:11  -8.86  -5.15    -3.07-225.410689             +0.0000
iter:  25  05:48:36  -9.35  -5.22    -3.34-225.410689             +0.0000
iter:  26  05:49:00  -9.07  -5.35    -3.26-225.410689             +0.0000
iter:  27  05:49:25  -9.50  -5.56    -3.45-225.410689             +0.0000
iter:  28  05:49:50 -10.05  -5.62    -3.95-225.410689             +0.0000
iter:  29  05:50:14  -9.79  -5.65    -3.57-225.410689             +0.0000
iter:  30  05:50:39 -10.05  -5.73    -3.40-225.410689             +0.0000
iter:  31  05:51:03 -10.03  -5.79    -3.94-225.410689             +0.0000
iter:  32  05:51:28  -9.52  -5.89    -3.54-225.410689             +0.0000
iter:  33  05:51:53  -9.88  -5.84    -3.44-225.410689             +0.0000
iter:  34  05:52:17 -11.05  -6.08    -4.69-225.410689             +0.0000
iter:  35  05:52:42 -10.15  -6.10    -3.76-225.410689             +0.0000
iter:  36  05:53:07 -11.46  -6.23    -4.41-225.410689             +0.0000
iter:  37  05:53:31 -12.09  -6.31    -4.41-225.410689             +0.0000
iter:  38  05:53:56 -11.12  -6.30    -4.60-225.410689             +0.0000
iter:  39  05:54:20 -11.21  -6.32    -4.20-225.410689             +0.0000
iter:  40  05:54:45 -12.15  -6.35    -4.92-225.410689             +0.0000
iter:  41  05:55:10 -11.83  -6.38    -4.33-225.410689             +0.0000
iter:  42  05:55:34 -11.58  -6.53    -4.48-225.410689             +0.0000
iter:  43  05:55:59 -12.61  -6.53    -4.83-225.410689             +0.0000
iter:  44  05:56:24 -11.84  -6.60    -4.66-225.410689             +0.0000
iter:  45  05:56:48 -12.27  -6.87    -4.65-225.410689             +0.0000
iter:  46  05:57:13 -12.49  -6.97    -5.02-225.410689             +0.0000
iter:  47  05:57:37 -12.83  -7.05    -4.88-225.410689             +0.0000
iter:  48  05:58:02 -12.87  -7.11    -5.26-225.410689             +0.0000
iter:  49  05:58:26 -13.00  -7.15    -5.06-225.410689             +0.0000
iter:  50  05:58:51 -12.66  -7.29    -5.10-225.410689             +0.0000
iter:  51  05:59:15 -13.99  -7.49    -5.84-225.410689             +0.0000
iter:  52  05:59:40 -13.59  -7.54    -5.42-225.410689             +0.0000
iter:  53  06:00:04 -14.60  -7.64    -6.34-225.410689             +0.0000

Converged after 53 iterations.

Dipole moment: (19.052483, -1.421747, -4.182842) |e|*Ang

Total magnetic moment: (0.000000, 0.000000, 0.000000)
Local magnetic moments:
   0 O  ( 0.000000,  0.000000,  0.000705)
   1 O  ( 0.000000,  0.000000, -0.000660)
   2 O  ( 0.000000,  0.000000, -0.000640)
   3 O  ( 0.000000,  0.000000,  0.000679)
   4 O  ( 0.000000,  0.000000, -0.000623)
   5 O  ( 0.000000,  0.000000,  0.000684)
   6 O  ( 0.000000,  0.000000,  0.000680)
   7 O  ( 0.000000,  0.000000, -0.000657)
   8 O  ( 0.000000,  0.000000,  0.022383)
   9 O  ( 0.000000,  0.000000, -0.022405)
  10 O  ( 0.000000,  0.000000, -0.022353)
  11 O  ( 0.000000,  0.000000,  0.022330)
  12 Mn ( 0.000000,  0.000000,  4.575052)
  13 Mn ( 0.000000,  0.000000, -4.575071)
  14 Mn ( 0.000000,  0.000000, -4.575079)
  15 Mn ( 0.000000,  0.000000,  4.574998)
  16 P  ( 0.000000,  0.000000,  0.000809)
  17 P  ( 0.000000,  0.000000, -0.000820)
  18 P  ( 0.000000,  0.000000, -0.000814)
  19 P  ( 0.000000,  0.000000,  0.000813)
  20 O  ( 0.000000,  0.000000,  0.020697)
  21 O  ( 0.000000,  0.000000, -0.020699)
  22 O  ( 0.000000,  0.000000, -0.020721)
  23 O  ( 0.000000,  0.000000,  0.020718)
  24 Li ( 0.000000,  0.000000,  0.000000)
  25 Li ( 0.000000,  0.000000,  0.000006)
  26 Li ( 0.000000,  0.000000,  0.000000)
  27 Li ( 0.000000,  0.000000, -0.000001)

Energy contributions relative to reference atoms: (reference = -196157.275402)

Kinetic:       +296.839870
Potential:     -256.382486
External:        +0.000000
XC:            -267.648821
Entropy (-ST):   -0.000000
Local:           +1.780748
Free energy:   -225.410689
Extrapolated:  -225.410689

Spin contamination: 9.697235 electrons
Showing only first 2 kpts
                      Up                     Down
 Kpt  Band  Eigenvalues  Occupancy  Eigenvalues  Occupancy
  0    88      5.10738    0.00694      5.11136    0.00694
  0    89      5.15883    0.00694      5.16315    0.00694
  0    90      9.65449    0.00000      9.65004    0.00000
  0    91      9.67241    0.00000      9.66954    0.00000

  1    88      5.11885    0.00694      5.12309    0.00694
  1    89      5.16820    0.00694      5.17240    0.00694
  1    90      9.53660    0.00000      9.53248    0.00000
  1    91      9.54624    0.00000      9.54354    0.00000

Fermi level: 6.36994

Gap: 3.793 eV
Transition (v -> c):
  (s=1, k=71, n=89, [-0.08, 0.42, 0.38]) -> (s=1, k=86, n=90, [0.08, 0.08, 0.12])
Writing to born-0.01-25y+.gpw (mode='all')