User:   madkru@g035.nifl.fysik.dtu.dk
Date:   Mon Mar 22 05:00:36 2021
Arch:   x86_64
Pid:    44316
Python: 3.7.4
gpaw:   /home/niflheim/madkru/venv_folder/gpaw/gpaw (d0d1ca1c71)
_gpaw:  /home/niflheim/madkru/venv_folder/gpaw/build/lib.linux-x86_64-sandybridge-3.7/
        _gpaw.cpython-37m-x86_64-linux-gnu.so (4fd39e8b1e)
ase:    /home/niflheim/madkru/venv_folder/ase/ase (version 3.21.0b1-7e6c206a91)
numpy:  /home/niflheim/madkru/venv_folder/lib/python3.7/site-packages/numpy (version 1.19.4)
scipy:  /home/niflheim/madkru/venv_folder/lib/python3.7/site-packages/scipy (version 1.5.4)
units:  Angstrom and eV
cores: 32
OMP_NUM_THREADS: 1

Input parameters:
  convergence: {bands: occupied,
                density: 0.0001,
                eigenstates: 4e-08,
                energy: 0.0005,
                forces: 1e-06}
  kpts: [6 6 4]
  mode: {ecut: 600.0,
         gammacentered: False,
         name: pw}
  occupations: {fixmagmom: False,
                name: fermi-dirac,
                width: 0.001}
  setups: {Mn: :d,3.0}
  symmetry: {point_group: False,
             time_reversal: False}

System changes: positions, numbers, cell, pbc, initial_charges, initial_magmoms

Initialize ...

O-setup:
  name: Oxygen
  id: 9b9d51c344dea68c822856295a461509
  Z: 8.0
  valence: 6
  core: 2
  charge: 0.0
  file: /home/modules/software/GPAW-setups/0.9.20000/O.LDA.gz
  compensation charges: gauss, rc=0.21, lmax=2
  cutoffs: 1.17(filt), 0.83(core),
  valence states:
                energy  radius
    2s(2.00)   -23.752   0.688
    2p(4.00)    -9.195   0.598
    *s           3.459   0.688
    *p          18.016   0.598
    *d           0.000   0.619

  Using partial waves for O as LCAO basis

Mn-setup:
  name: Manganese
  id: 0d715a8018be061a6e9ea6f2d364ac92
  Z: 25.0
  valence: 15
  core: 10
  charge: 0.0
  Hubbard U: 3.000000 eV (l=2, scale=True)
  file: /home/modules/software/GPAW-setups/0.9.20000/Mn.LDA.gz
  compensation charges: gauss, rc=0.38, lmax=2
  cutoffs: 2.14(filt), 0.86(core),
  valence states:
                energy  radius
    3s(2.00)   -85.387   1.275
    4s(2.00)    -5.282   1.275
    3p(6.00)   -54.493   1.281
    4p(0.00)    -1.471   1.281
    3d(5.00)    -7.009   1.138
    *d          20.203   1.138

[...]

P-setup:
  name: Phosphorus
  id: a5561c299094968922a179ab894d2e2d
  Z: 15.0
  valence: 5
  core: 10
  charge: 0.0
  file: /home/modules/software/GPAW-setups/0.9.20000/P.LDA.gz
  compensation charges: gauss, rc=0.30, lmax=2
  cutoffs: 1.69(filt), 1.81(core),
  valence states:
                energy  radius
    3s(2.00)   -14.015   0.953
    3p(3.00)    -5.596   0.953
    *s          13.197   0.953
    *p          21.615   0.953
    *d           0.000   0.953

[...]

Li-setup:
  name: Lithium
  id: b73562207f97a71b6967473b66fe8b65
  Z: 3.0
  valence: 1
  core: 2
  charge: 0.0
  file: /home/modules/software/GPAW-setups/0.9.20000/Li.LDA.gz
  compensation charges: gauss, rc=0.33, lmax=2
  cutoffs: 1.91(filt), 2.55(core),
  valence states:
                energy  radius
    2s(1.00)    -2.874   1.058
    2p(0.00)    -1.126   1.058
    *s          24.338   1.058

  Using partial waves for Li as LCAO basis

Reference energy: -196157.275402

Spin-polarized calculation.
Magnetic moment: 0.000000

Convergence criteria:
  Maximum total energy change: 0.0005 eV / electron
  Maximum integral of absolute density change: 0.0001 electrons
  Maximum integral of absolute eigenstate change: 4e-08 eV^2
  Maximum change in atomic force: 1e-06 eV / Ang
  Maximum number of iterations: 333

Symmetries present (total): 1

  ( 1  0  0)
  ( 0  1  0)
  ( 0  0  1)

144 k-points: 6 x 6 x 4 Monkhorst-Pack grid
144 k-points in the irreducible part of the Brillouin zone
       k-points in crystal coordinates                weights
   0:    -0.41666667   -0.41666667   -0.37500000          1/144
   1:    -0.41666667   -0.41666667   -0.12500000          1/144
   2:    -0.41666667   -0.41666667    0.12500000          1/144
   3:    -0.41666667   -0.41666667    0.37500000          1/144
   4:    -0.41666667   -0.25000000   -0.37500000          1/144
   5:    -0.41666667   -0.25000000   -0.12500000          1/144
   6:    -0.41666667   -0.25000000    0.12500000          1/144
   7:    -0.41666667   -0.25000000    0.37500000          1/144
   8:    -0.41666667   -0.08333333   -0.37500000          1/144
   9:    -0.41666667   -0.08333333   -0.12500000          1/144
          ...
 143:     0.41666667    0.41666667    0.37500000          1/144

Wave functions: Plane wave expansion
  Cutoff energy: 600.000 eV
  Number of coefficients (min, max): 9238, 9284
  Pulay-stress correction: 0.000000 eV/Ang^3 (de/decut=0.000000)
  Using FFTW library
  ScaLapack parameters: grid=1x1, blocksize=None
  Wavefunction extrapolation:
    Improved wavefunction reuse through dual PAW basis

  Fermi-Dirac: width=0.0010 eV

Eigensolver
   Davidson(niter=2, smin=None, normalize=True)

Densities:
  Coarse grid: 60*35*27 grid
  Fine grid: 120*70*54 grid
  Total Charge: 0.000000

Density mixing:
  Method: difference
  Backend: pulay
  Linear mixing parameter: 0.05
  Mixing with 5 old densities
  Damping of long wave oscillations: 50

Hamiltonian:
  XC and Coulomb potentials evaluated on a 120*70*54 grid
  Using the LDA Exchange-Correlation functional

Total number of cores used: 32
Parallelization over k-points: 16
Domain decomposition: 2 x 1 x 1

Number of atoms: 28
Number of atomic orbitals: 148
Number of bands in calculation: 112
Number of valence electrons: 180
Bands to converge: occupied

... initialized

Initializing position-dependent things.

Density initialized from atomic densities
Creating initial wave functions:
  112 bands from LCAO basis set

               O     O  P  O
            PO           OMn     O
                  O          MO
            O        Li O
             Mn  On          OP
         O         Li O
         Li     O P         O
       Li

Positions:
   0 O     -1.263197   -2.497779   -1.098475    ( 0.0000,  0.0000,  0.0000)
   1 O     -3.070823    2.922496    1.209491    ( 0.0000,  0.0000,  0.0000)
   2 O      1.985541    0.474863    1.428016    ( 0.0000,  0.0000,  0.0000)
   3 O      3.793120   -0.050100   -0.879950    ( 0.0000,  0.0000,  0.0000)
   4 O      1.985518    2.922485    1.428149    ( 0.0000,  0.0000,  0.0000)
   5 O      3.793144   -2.507790   -0.879818    ( 0.0000,  0.0000,  0.0000)
   6 O     -1.263220   -0.050157   -1.098342    ( 0.0000,  0.0000,  0.0000)
   7 O     -3.070798    0.474805    1.209623    ( 0.0000,  0.0000,  0.0000)
   8 O     -4.167835   -1.273920   -0.862116    ( 0.0000,  0.0000,  0.0000)
   9 O     -0.166037    1.698602    1.445528    ( 0.0000,  0.0000,  0.0000)
  10 O      4.890156    1.698625    1.191790    ( 0.0000,  0.0000,  0.0000)
  11 O      0.888358   -1.273896   -1.115855    ( 0.0000,  0.0000,  0.0000)
  12 Mn    -2.445557   -1.274211    0.312921    ( 0.0000,  0.0000,  1.0000)
  13 Mn    -1.888303    1.698892   -1.994948    ( 0.0000,  0.0000, -1.0000)
  14 Mn     3.167879    1.698917    0.016752    ( 0.0000,  0.0000, -1.0000)
  15 Mn     2.610624   -1.274187    2.324621    ( 0.0000,  0.0000,  1.0000)
  16 P     -0.529549   -1.273917   -1.724376    ( 0.0000,  0.0000,  0.0000)
  17 P     -3.804359    1.698599    0.583463    ( 0.0000,  0.0000,  0.0000)
  18 P      1.251870    1.698623    2.054050    ( 0.0000,  0.0000,  0.0000)
  19 P      4.526680   -1.273894   -0.253789    ( 0.0000,  0.0000,  0.0000)
  20 O     -0.544227   -1.273926    1.365380    ( 0.0000,  0.0000,  0.0000)
  21 O     -3.789411    1.698610   -0.942222    ( 0.0000,  0.0000,  0.0000)
  22 O      1.266548    1.698631   -1.035707    ( 0.0000,  0.0000,  0.0000)
  23 O      4.511733   -1.273905    1.271895    ( 0.0000,  0.0000,  0.0000)
  24 Li    -4.695087   -2.760584   -2.142877    ( 0.0000,  0.0000,  0.0000)
  25 Li     0.361147   -2.760561    0.164836    ( 0.0000,  0.0000,  0.0000)
  26 Li    -4.695074    0.212330   -2.142877    ( 0.0000,  0.0000,  0.0000)
  27 Li     0.361161    0.212353    0.164837    ( 0.0000,  0.0000,  0.0000)

Unit cell:
           periodic     x           y           z      points  spacing
  1. axis:    yes   10.112485    0.000045   -0.000035    60     0.1685
  2. axis:    yes    0.000026    5.945827    0.000001    35     0.1699
  3. axis:    yes   -0.000016    0.000000    4.615463    27     0.1709

  Lengths:  10.112485   5.945827   4.615463
  Angles:   89.999989  90.000396  89.999490

Effective grid spacing dv^(1/3) = 0.1698

                     log10-error:           total        iterations:
           time      wfs    density  force  energy       poisson  magmom
iter:   1  05:03:53                       -221.376607             +0.0000
iter:   2  05:04:30  -0.61  -0.93         -234.818062             +0.0000
iter:   3  05:05:07  -0.37  -0.97         -225.905096             -0.0000
iter:   4  05:05:45  -1.39  -1.29         -225.760555             +0.0000
iter:   5  05:06:22  -1.27  -1.39         -227.320195             +0.0000
iter:   6  05:07:00  -1.47  -1.46         -225.735773             +0.0000
iter:   7  05:07:37  -2.48  -2.04         -225.722512             +0.0000
iter:   8  05:08:14  -2.14  -1.99         -225.594043             +0.0000
iter:   9  05:08:52  -2.45  -2.08         -225.430817             +0.0000
iter:  10  05:09:29  -3.32  -2.55         -225.421310             +0.0000
iter:  11  05:10:06  -3.66  -2.81         -225.410754             +0.0000
iter:  12  05:10:43  -4.11  -3.04         -225.409648             +0.0000
iter:  13  05:11:21  -5.08  -3.29         -225.409517             -0.0000
iter:  14  05:11:58  -5.40  -3.32         -225.409347             -0.0000
iter:  15  05:12:35  -6.05  -3.44         -225.409355             -0.0000
iter:  16  05:13:12  -5.32  -3.48         -225.409635             +0.0000
iter:  17  05:13:50  -5.81  -3.60         -225.409545             -0.0000
iter:  18  05:14:27  -5.37  -3.74         -225.409297             +0.0000
iter:  19  05:15:04  -6.02  -4.01         -225.409304             +0.0000
iter:  20  05:15:41  -7.04  -4.27         -225.409298             -0.0000
iter:  21  05:16:28  -7.67  -4.34         -225.409302             +0.0000
iter:  22  05:17:15  -7.46  -4.44    -2.34-225.409303             +0.0000
iter:  23  05:18:03  -7.78  -4.42    -2.92-225.409301             +0.0000
iter:  24  05:18:49  -8.18  -4.46    -2.74-225.409300             +0.0000
iter:  25  05:19:36  -7.79  -4.55    -3.10-225.409300             +0.0000
iter:  26  05:20:23  -8.33  -4.64    -3.10-225.409300             +0.0000
iter:  27  05:21:10  -9.13  -4.74    -3.40-225.409300             +0.0000
iter:  28  05:21:57  -8.11  -4.79    -2.72-225.409300             +0.0000
iter:  29  05:22:44  -9.29  -4.97    -3.36-225.409300             +0.0000
iter:  30  05:23:31  -8.14  -5.01    -3.14-225.409300             +0.0000
iter:  31  05:24:18  -8.98  -5.37    -3.32-225.409300             +0.0000
iter:  32  05:25:05  -8.97  -5.52    -3.45-225.409300             +0.0000
iter:  33  05:25:52  -9.25  -5.46    -3.18-225.409300             +0.0000
iter:  34  05:26:39 -10.50  -6.03    -3.95-225.409300             +0.0000
iter:  35  05:27:26  -9.65  -6.08    -3.80-225.409300             +0.0000
iter:  36  05:28:13 -10.21  -5.95    -3.74-225.409300             +0.0000
iter:  37  05:29:00 -10.70  -6.29    -4.27-225.409300             +0.0000
iter:  38  05:29:47 -11.11  -6.39    -4.30-225.409300             +0.0000
iter:  39  05:30:34 -10.75  -6.53    -4.30-225.409300             +0.0000
iter:  40  05:31:21 -12.06  -6.62    -4.96-225.409300             +0.0000
iter:  41  05:32:08 -12.17  -6.66    -4.85-225.409300             +0.0000
iter:  42  05:32:55 -12.06  -6.71    -4.95-225.409300             +0.0000
iter:  43  05:33:42 -12.81  -6.79    -5.22-225.409300             +0.0000
iter:  44  05:34:29 -12.35  -6.84    -4.91-225.409300             +0.0000
iter:  45  05:35:16 -12.91  -6.92    -5.13-225.409300             +0.0000
iter:  46  05:36:03 -13.33  -7.01    -5.48-225.409300             +0.0000
iter:  47  05:36:50 -13.51  -7.07    -5.30-225.409300             +0.0000
iter:  48  05:37:37 -13.63  -7.12    -5.31-225.409300             +0.0000
iter:  49  05:38:24 -13.00  -7.10    -4.93-225.409300             +0.0000
iter:  50  05:39:11 -13.59  -7.47    -5.56-225.409300             +0.0000
iter:  51  05:39:58 -14.28  -7.47    -5.90-225.409300             +0.0000
iter:  52  05:40:45 -13.55  -7.51    -5.56-225.409300             +0.0000
iter:  53  05:41:32 -13.81  -7.57    -5.89-225.409300             +0.0000
iter:  54  05:42:19 -14.28  -7.61    -5.75-225.409300             +0.0000
iter:  55  05:43:06 -15.10  -7.70    -6.32-225.409300             +0.0000

Converged after 55 iterations.

Dipole moment: (19.054189, -1.421155, -4.179561) |e|*Ang

Total magnetic moment: (0.000000, 0.000000, 0.000000)
Local magnetic moments:
   0 O  ( 0.000000,  0.000000,  0.000671)
   1 O  ( 0.000000,  0.000000, -0.000663)
   2 O  ( 0.000000,  0.000000, -0.000512)
   3 O  ( 0.000000,  0.000000,  0.000737)
   4 O  ( 0.000000,  0.000000, -0.000708)
   5 O  ( 0.000000,  0.000000,  0.000436)
   6 O  ( 0.000000,  0.000000,  0.000664)
   7 O  ( 0.000000,  0.000000, -0.000663)
   8 O  ( 0.000000,  0.000000,  0.022199)
   9 O  ( 0.000000,  0.000000, -0.022382)
  10 O  ( 0.000000,  0.000000, -0.022398)
  11 O  ( 0.000000,  0.000000,  0.022371)
  12 Mn ( 0.000000,  0.000000,  4.575022)
  13 Mn ( 0.000000,  0.000000, -4.575042)
  14 Mn ( 0.000000,  0.000000, -4.574019)
  15 Mn ( 0.000000,  0.000000,  4.575072)
  16 P  ( 0.000000,  0.000000,  0.000806)
  17 P  ( 0.000000,  0.000000, -0.000831)
  18 P  ( 0.000000,  0.000000, -0.000827)
  19 P  ( 0.000000,  0.000000,  0.000529)
  20 O  ( 0.000000,  0.000000,  0.020724)
  21 O  ( 0.000000,  0.000000, -0.020706)
  22 O  ( 0.000000,  0.000000, -0.020764)
  23 O  ( 0.000000,  0.000000,  0.020607)
  24 Li ( 0.000000,  0.000000, -0.000026)
  25 Li ( 0.000000,  0.000000, -0.000000)
  26 Li ( 0.000000,  0.000000, -0.000002)
  27 Li ( 0.000000,  0.000000, -0.000001)

Energy contributions relative to reference atoms: (reference = -196157.275402)

Kinetic:       +296.336494
Potential:     -255.992399
External:        +0.000000
XC:            -267.535056
Entropy (-ST):   -0.000000
Local:           +1.781661
Free energy:   -225.409300
Extrapolated:  -225.409300

Spin contamination: 9.696643 electrons
Showing only first 2 kpts
                      Up                     Down
 Kpt  Band  Eigenvalues  Occupancy  Eigenvalues  Occupancy
  0    88      5.10556    0.00694      5.11578    0.00694
  0    89      5.15714    0.00694      5.16898    0.00694
  0    90      9.65951    0.00000      9.64921    0.00000
  0    91      9.67470    0.00000      9.66689    0.00000

  1    88      5.11730    0.00694      5.12717    0.00694
  1    89      5.16647    0.00694      5.17859    0.00694
  1    90      9.54182    0.00000      9.53125    0.00000
  1    91      9.54857    0.00000      9.53809    0.00000

Fermi level: 6.37070

Gap: 3.785 eV
Transition (v -> c):
  (s=1, k=68, n=89, [-0.08, 0.42, -0.38]) -> (s=1, k=85, n=90, [0.08, 0.08, -0.12])
Writing to born-0.01-5y-.gpw (mode='all')