User:   madkru@i018.nifl.fysik.dtu.dk
Date:   Thu Mar 25 08:36:14 2021
Arch:   x86_64
Pid:    26873
Python: 3.7.4
gpaw:   /home/niflheim/madkru/venv_folder/gpaw/gpaw (d224efde0f)
_gpaw:  /home/niflheim/madkru/venv_folder/gpaw/build/lib.linux-x86_64-ivybridge-3.7/
        _gpaw.cpython-37m-x86_64-linux-gnu.so (4fd39e8b1e)
ase:    /home/niflheim/madkru/venv_folder/ase/ase (version 3.21.0b1-4d5a73cb29)
numpy:  /home/niflheim/madkru/venv_folder/lib/python3.7/site-packages/numpy (version 1.19.4)
scipy:  /home/niflheim/madkru/venv_folder/lib/python3.7/site-packages/scipy (version 1.5.4)
units:  Angstrom and eV
cores: 64
OMP_NUM_THREADS: 1

Input parameters:
  convergence: {bands: occupied,
                density: 0.0001,
                eigenstates: 4e-08,
                energy: 0.0005,
                forces: 1e-06}
  kpts: [6 6 4]
  mode: {ecut: 600.0,
         gammacentered: False,
         name: pw}
  occupations: {fixmagmom: False,
                name: fermi-dirac,
                width: 0.001}
  setups: {Mn: :d,3.0}
  symmetry: {point_group: False,
             time_reversal: False}

System changes: positions, numbers, cell, pbc, initial_charges, initial_magmoms

Initialize ...

O-setup:
  name: Oxygen
  id: 9b9d51c344dea68c822856295a461509
  Z: 8.0
  valence: 6
  core: 2
  charge: 0.0
  file: /home/modules/software/GPAW-setups/0.9.20000/O.LDA.gz
  compensation charges: gauss, rc=0.21, lmax=2
  cutoffs: 1.17(filt), 0.83(core),
  valence states:
                energy  radius
    2s(2.00)   -23.752   0.688
    2p(4.00)    -9.195   0.598
    *s           3.459   0.688
    *p          18.016   0.598
    *d           0.000   0.619

  Using partial waves for O as LCAO basis

Mn-setup:
  name: Manganese
  id: 0d715a8018be061a6e9ea6f2d364ac92
  Z: 25.0
  valence: 15
  core: 10
  charge: 0.0
  Hubbard U: 3.000000 eV (l=2, scale=True)
  file: /home/modules/software/GPAW-setups/0.9.20000/Mn.LDA.gz
  compensation charges: gauss, rc=0.38, lmax=2
  cutoffs: 2.14(filt), 0.86(core),
  valence states:
                energy  radius
    3s(2.00)   -85.387   1.275
    4s(2.00)    -5.282   1.275
    3p(6.00)   -54.493   1.281
    4p(0.00)    -1.471   1.281
    3d(5.00)    -7.009   1.138
    *d          20.203   1.138

[...]

P-setup:
  name: Phosphorus
  id: a5561c299094968922a179ab894d2e2d
  Z: 15.0
  valence: 5
  core: 10
  charge: 0.0
  file: /home/modules/software/GPAW-setups/0.9.20000/P.LDA.gz
  compensation charges: gauss, rc=0.30, lmax=2
  cutoffs: 1.69(filt), 1.81(core),
  valence states:
                energy  radius
    3s(2.00)   -14.015   0.953
    3p(3.00)    -5.596   0.953
    *s          13.197   0.953
    *p          21.615   0.953
    *d           0.000   0.953

[...]

Li-setup:
  name: Lithium
  id: b73562207f97a71b6967473b66fe8b65
  Z: 3.0
  valence: 1
  core: 2
  charge: 0.0
  file: /home/modules/software/GPAW-setups/0.9.20000/Li.LDA.gz
  compensation charges: gauss, rc=0.33, lmax=2
  cutoffs: 1.91(filt), 2.55(core),
  valence states:
                energy  radius
    2s(1.00)    -2.874   1.058
    2p(0.00)    -1.126   1.058
    *s          24.338   1.058

  Using partial waves for Li as LCAO basis

Reference energy: -196157.275402

Spin-polarized calculation.
Magnetic moment: 0.000000

Convergence criteria:
  Maximum total energy change: 0.0005 eV / electron
  Maximum integral of absolute density change: 0.0001 electrons
  Maximum integral of absolute eigenstate change: 4e-08 eV^2
  Maximum change in atomic force: 1e-06 eV / Ang
  Maximum number of iterations: 333

Symmetries present (total): 1

  ( 1  0  0)
  ( 0  1  0)
  ( 0  0  1)

144 k-points: 6 x 6 x 4 Monkhorst-Pack grid
144 k-points in the irreducible part of the Brillouin zone
       k-points in crystal coordinates                weights
   0:    -0.41666667   -0.41666667   -0.37500000          1/144
   1:    -0.41666667   -0.41666667   -0.12500000          1/144
   2:    -0.41666667   -0.41666667    0.12500000          1/144
   3:    -0.41666667   -0.41666667    0.37500000          1/144
   4:    -0.41666667   -0.25000000   -0.37500000          1/144
   5:    -0.41666667   -0.25000000   -0.12500000          1/144
   6:    -0.41666667   -0.25000000    0.12500000          1/144
   7:    -0.41666667   -0.25000000    0.37500000          1/144
   8:    -0.41666667   -0.08333333   -0.37500000          1/144
   9:    -0.41666667   -0.08333333   -0.12500000          1/144
          ...
 143:     0.41666667    0.41666667    0.37500000          1/144

Wave functions: Plane wave expansion
  Cutoff energy: 600.000 eV
  Number of coefficients (min, max): 9238, 9284
  Pulay-stress correction: 0.000000 eV/Ang^3 (de/decut=0.000000)
  Using FFTW library
  ScaLapack parameters: grid=1x1, blocksize=None
  Wavefunction extrapolation:
    Improved wavefunction reuse through dual PAW basis

  Fermi-Dirac: width=0.0010 eV

Eigensolver
   Davidson(niter=2, smin=None, normalize=True)

Densities:
  Coarse grid: 60*35*27 grid
  Fine grid: 120*70*54 grid
  Total Charge: 0.000000

Density mixing:
  Method: difference
  Backend: pulay
  Linear mixing parameter: 0.05
  Mixing with 5 old densities
  Damping of long wave oscillations: 50

Hamiltonian:
  XC and Coulomb potentials evaluated on a 120*70*54 grid
  Using the LDA Exchange-Correlation functional

Total number of cores used: 64
Parallelization over k-points: 16
Domain decomposition: 2 x 2 x 1

Number of atoms: 28
Number of atomic orbitals: 148
Number of bands in calculation: 112
Number of valence electrons: 180
Bands to converge: occupied

... initialized

Initializing position-dependent things.

Density initialized from atomic densities
Creating initial wave functions:
  112 bands from LCAO basis set

               O     O  P  O
            PO           OMn     O
                  O          MO
            O        Li O
             Mn  On          OP
         O         Li O
         Li     O P         O
       Li

Positions:
   0 O     -1.263197   -2.497779   -1.098475    ( 0.0000,  0.0000,  0.0000)
   1 O     -3.070823    2.922496    1.209491    ( 0.0000,  0.0000,  0.0000)
   2 O      1.985541    0.474863    1.428016    ( 0.0000,  0.0000,  0.0000)
   3 O      3.793120   -0.050100   -0.879950    ( 0.0000,  0.0000,  0.0000)
   4 O      1.985518    2.922485    1.428149    ( 0.0000,  0.0000,  0.0000)
   5 O      3.793144   -2.497790   -0.879818    ( 0.0000,  0.0000,  0.0000)
   6 O     -1.263220   -0.050157   -1.098342    ( 0.0000,  0.0000,  0.0000)
   7 O     -3.070798    0.474805    1.209623    ( 0.0000,  0.0000,  0.0000)
   8 O     -4.167835   -1.273920   -0.862116    ( 0.0000,  0.0000,  0.0000)
   9 O     -0.166037    1.698602    1.445528    ( 0.0000,  0.0000,  0.0000)
  10 O      4.890156    1.698625    1.191790    ( 0.0000,  0.0000,  0.0000)
  11 O      0.888358   -1.273896   -1.115855    ( 0.0000,  0.0000,  0.0000)
  12 Mn    -2.445557   -1.274211    0.312921    ( 0.0000,  0.0000,  1.0000)
  13 Mn    -1.888303    1.698892   -1.994948    ( 0.0000,  0.0000, -1.0000)
  14 Mn     3.167879    1.698917    0.016752    ( 0.0000,  0.0000, -1.0000)
  15 Mn     2.610624   -1.274187    2.324621    ( 0.0000,  0.0000,  1.0000)
  16 P     -0.529549   -1.273917   -1.724376    ( 0.0000,  0.0000,  0.0000)
  17 P     -3.804359    1.698599    0.583463    ( 0.0000,  0.0000,  0.0000)
  18 P      1.251870    1.698623    2.054050    ( 0.0000,  0.0000,  0.0000)
  19 P      4.526680   -1.273894   -0.253789    ( 0.0000,  0.0000,  0.0000)
  20 O     -0.544227   -1.273926    1.365380    ( 0.0000,  0.0000,  0.0000)
  21 O     -3.789411    1.698610   -0.942222    ( 0.0000,  0.0000,  0.0000)
  22 O      1.266548    1.698631   -1.035707    ( 0.0000,  0.0000,  0.0000)
  23 O      4.511733   -1.273905    1.271895    ( 0.0000,  0.0000,  0.0000)
  24 Li    -4.695087   -2.760584   -2.142877    ( 0.0000,  0.0000,  0.0000)
  25 Li     0.361147   -2.760561    0.164836    ( 0.0000,  0.0000,  0.0000)
  26 Li    -4.695074    0.222330   -2.142877    ( 0.0000,  0.0000,  0.0000)
  27 Li     0.361161    0.212353    0.164837    ( 0.0000,  0.0000,  0.0000)

Unit cell:
           periodic     x           y           z      points  spacing
  1. axis:    yes   10.112485    0.000045   -0.000035    60     0.1685
  2. axis:    yes    0.000026    5.945827    0.000001    35     0.1699
  3. axis:    yes   -0.000016    0.000000    4.615463    27     0.1709

  Lengths:  10.112485   5.945827   4.615463
  Angles:   89.999989  90.000396  89.999490

Effective grid spacing dv^(1/3) = 0.1698

                     log10-error:           total        iterations:
           time      wfs    density  force  energy       poisson  magmom
iter:   1  08:37:48                       -221.376783             +0.0000
iter:   2  08:38:08  -0.61  -0.93         -234.835990             +0.0000
iter:   3  08:38:28  -0.37  -0.97         -225.912144             -0.0000
iter:   4  08:38:48  -1.39  -1.29         -225.761661             +0.0000
iter:   5  08:39:08  -1.27  -1.39         -227.329771             +0.0000
iter:   6  08:39:28  -1.46  -1.46         -225.737464             +0.0000
iter:   7  08:39:47  -2.47  -2.04         -225.724882             +0.0000
iter:   8  08:40:07  -2.14  -1.99         -225.590617             +0.0000
iter:   9  08:40:27  -2.46  -2.09         -225.432503             +0.0000
iter:  10  08:40:47  -3.31  -2.55         -225.422569             +0.0000
iter:  11  08:41:07  -3.65  -2.81         -225.412135             +0.0000
iter:  12  08:41:27  -4.12  -3.05         -225.411029             +0.0000
iter:  13  08:41:46  -5.10  -3.29         -225.410908             -0.0000
iter:  14  08:42:06  -5.39  -3.32         -225.410735             -0.0000
iter:  15  08:42:26  -6.04  -3.43         -225.410741             -0.0000
iter:  16  08:42:46  -5.24  -3.47         -225.411084             +0.0000
iter:  17  08:43:06  -5.87  -3.58         -225.410969             -0.0000
iter:  18  08:43:26  -5.21  -3.70         -225.410684             +0.0000
iter:  19  08:43:46  -6.10  -4.14         -225.410687             +0.0000
iter:  20  08:44:05  -7.28  -4.54         -225.410689             -0.0000
iter:  21  08:44:30  -8.07  -4.57         -225.410689             -0.0000
iter:  22  08:44:54  -7.86  -4.63    -2.35-225.410689             -0.0000
iter:  23  08:45:19  -8.18  -4.89    -2.70-225.410689             -0.0000
iter:  24  08:45:44  -8.72  -5.12    -3.04-225.410689             -0.0000
iter:  25  08:46:08  -9.31  -5.21    -3.30-225.410689             -0.0000
iter:  26  08:46:33  -9.03  -5.32    -3.21-225.410689             -0.0000
iter:  27  08:46:57  -9.38  -5.54    -3.39-225.410689             +0.0000
iter:  28  08:47:22 -10.03  -5.61    -3.95-225.410689             -0.0000
iter:  29  08:47:46  -9.99  -5.63    -3.62-225.410689             -0.0000
iter:  30  08:48:11 -10.38  -5.72    -3.57-225.410689             +0.0000
iter:  31  08:48:35 -10.14  -5.77    -4.33-225.410689             +0.0000
iter:  32  08:49:00  -9.22  -5.85    -3.54-225.410689             -0.0000
iter:  33  08:49:24  -9.76  -5.82    -3.40-225.410689             +0.0000
iter:  34  08:49:49 -10.84  -6.09    -4.63-225.410689             +0.0000
iter:  35  08:50:13 -10.33  -6.11    -3.74-225.410689             +0.0000
iter:  36  08:50:38 -11.16  -6.27    -4.61-225.410689             +0.0000
iter:  37  08:51:02 -11.50  -6.26    -4.77-225.410689             +0.0000
iter:  38  08:51:27 -10.95  -6.24    -4.48-225.410689             +0.0000
iter:  39  08:51:51 -11.19  -6.34    -4.28-225.410689             +0.0000
iter:  40  08:52:16 -11.70  -6.37    -4.46-225.410689             +0.0000
iter:  41  08:52:41 -11.91  -6.39    -4.33-225.410689             +0.0000
iter:  42  08:53:05 -11.74  -6.54    -4.86-225.410689             +0.0000
iter:  43  08:53:30 -12.43  -6.57    -5.11-225.410689             +0.0000
iter:  44  08:53:54 -11.98  -6.59    -4.74-225.410689             +0.0000
iter:  45  08:54:19 -11.99  -6.70    -4.47-225.410689             +0.0000
iter:  46  08:54:43 -12.22  -7.02    -5.15-225.410689             +0.0000
iter:  47  08:55:08 -13.41  -7.26    -5.68-225.410689             +0.0000
iter:  48  08:55:33 -12.04  -7.30    -5.26-225.410689             +0.0000
iter:  49  08:55:57 -13.43  -7.55    -5.76-225.410689             +0.0000
iter:  50  08:56:22 -12.73  -7.56    -5.82-225.410689             +0.0000
iter:  51  08:56:46 -14.22  -7.61    -6.23-225.410689             +0.0000

Converged after 51 iterations.

Dipole moment: (19.053304, -1.475146, -4.182697) |e|*Ang

Total magnetic moment: (0.000000, 0.000000, 0.000000)
Local magnetic moments:
   0 O  ( 0.000000,  0.000000,  0.000653)
   1 O  ( 0.000000,  0.000000, -0.000692)
   2 O  ( 0.000000,  0.000000, -0.000672)
   3 O  ( 0.000000,  0.000000,  0.000627)
   4 O  ( 0.000000,  0.000000, -0.000675)
   5 O  ( 0.000000,  0.000000,  0.000652)
   6 O  ( 0.000000,  0.000000,  0.000648)
   7 O  ( 0.000000,  0.000000, -0.000709)
   8 O  ( 0.000000,  0.000000,  0.022405)
   9 O  ( 0.000000,  0.000000, -0.022383)
  10 O  ( 0.000000,  0.000000, -0.022330)
  11 O  ( 0.000000,  0.000000,  0.022353)
  12 Mn ( 0.000000,  0.000000,  4.575102)
  13 Mn ( 0.000000,  0.000000, -4.575022)
  14 Mn ( 0.000000,  0.000000, -4.575029)
  15 Mn ( 0.000000,  0.000000,  4.575048)
  16 P  ( 0.000000,  0.000000,  0.000815)
  17 P  ( 0.000000,  0.000000, -0.000814)
  18 P  ( 0.000000,  0.000000, -0.000808)
  19 P  ( 0.000000,  0.000000,  0.000819)
  20 O  ( 0.000000,  0.000000,  0.020699)
  21 O  ( 0.000000,  0.000000, -0.020696)
  22 O  ( 0.000000,  0.000000, -0.020718)
  23 O  ( 0.000000,  0.000000,  0.020721)
  24 Li ( 0.000000,  0.000000,  0.000001)
  25 Li ( 0.000000,  0.000000, -0.000000)
  26 Li ( 0.000000,  0.000000, -0.000007)
  27 Li ( 0.000000,  0.000000, -0.000000)

Energy contributions relative to reference atoms: (reference = -196157.275402)

Kinetic:       +296.840236
Potential:     -256.382833
External:        +0.000000
XC:            -267.648851
Entropy (-ST):   -0.000000
Local:           +1.780760
Free energy:   -225.410689
Extrapolated:  -225.410689

Spin contamination: 9.697233 electrons
Showing only first 2 kpts
                      Up                     Down
 Kpt  Band  Eigenvalues  Occupancy  Eigenvalues  Occupancy
  0    88      5.11138    0.00694      5.10737    0.00694
  0    89      5.16312    0.00694      5.15887    0.00694
  0    90      9.65076    0.00000      9.65377    0.00000
  0    91      9.66875    0.00000      9.67321    0.00000

  1    88      5.12293    0.00694      5.11901    0.00694
  1    89      5.17252    0.00694      5.16808    0.00694
  1    90      9.53314    0.00000      9.53594    0.00000
  1    91      9.54285    0.00000      9.54694    0.00000

Fermi level: 6.36992

Gap: 3.793 eV
Transition (v -> c):
  (s=0, k=72, n=89, [0.08, -0.42, -0.38]) -> (s=0, k=81, n=90, [0.08, -0.08, -0.12])