User:   madkru@i018.nifl.fysik.dtu.dk
Date:   Wed Mar 24 05:28:08 2021
Arch:   x86_64
Pid:    26873
Python: 3.7.4
gpaw:   /home/niflheim/madkru/venv_folder/gpaw/gpaw (d0d1ca1c71)
_gpaw:  /home/niflheim/madkru/venv_folder/gpaw/build/lib.linux-x86_64-ivybridge-3.7/
        _gpaw.cpython-37m-x86_64-linux-gnu.so (4fd39e8b1e)
ase:    /home/niflheim/madkru/venv_folder/ase/ase (version 3.21.0b1-7e6c206a91)
numpy:  /home/niflheim/madkru/venv_folder/lib/python3.7/site-packages/numpy (version 1.19.4)
scipy:  /home/niflheim/madkru/venv_folder/lib/python3.7/site-packages/scipy (version 1.5.4)
units:  Angstrom and eV
cores: 64
OMP_NUM_THREADS: 1

Input parameters:
  convergence: {bands: occupied,
                density: 0.0001,
                eigenstates: 4e-08,
                energy: 0.0005,
                forces: 1e-06}
  kpts: [6 6 4]
  mode: {ecut: 600.0,
         gammacentered: False,
         name: pw}
  occupations: {fixmagmom: False,
                name: fermi-dirac,
                width: 0.001}
  setups: {Mn: :d,3.0}
  symmetry: {point_group: False,
             time_reversal: False}

System changes: positions, numbers, cell, pbc, initial_charges, initial_magmoms

Initialize ...

O-setup:
  name: Oxygen
  id: 9b9d51c344dea68c822856295a461509
  Z: 8.0
  valence: 6
  core: 2
  charge: 0.0
  file: /home/modules/software/GPAW-setups/0.9.20000/O.LDA.gz
  compensation charges: gauss, rc=0.21, lmax=2
  cutoffs: 1.17(filt), 0.83(core),
  valence states:
                energy  radius
    2s(2.00)   -23.752   0.688
    2p(4.00)    -9.195   0.598
    *s           3.459   0.688
    *p          18.016   0.598
    *d           0.000   0.619

  Using partial waves for O as LCAO basis

Mn-setup:
  name: Manganese
  id: 0d715a8018be061a6e9ea6f2d364ac92
  Z: 25.0
  valence: 15
  core: 10
  charge: 0.0
  Hubbard U: 3.000000 eV (l=2, scale=True)
  file: /home/modules/software/GPAW-setups/0.9.20000/Mn.LDA.gz
  compensation charges: gauss, rc=0.38, lmax=2
  cutoffs: 2.14(filt), 0.86(core),
  valence states:
                energy  radius
    3s(2.00)   -85.387   1.275
    4s(2.00)    -5.282   1.275
    3p(6.00)   -54.493   1.281
    4p(0.00)    -1.471   1.281
    3d(5.00)    -7.009   1.138
    *d          20.203   1.138

[...]

P-setup:
  name: Phosphorus
  id: a5561c299094968922a179ab894d2e2d
  Z: 15.0
  valence: 5
  core: 10
  charge: 0.0
  file: /home/modules/software/GPAW-setups/0.9.20000/P.LDA.gz
  compensation charges: gauss, rc=0.30, lmax=2
  cutoffs: 1.69(filt), 1.81(core),
  valence states:
                energy  radius
    3s(2.00)   -14.015   0.953
    3p(3.00)    -5.596   0.953
    *s          13.197   0.953
    *p          21.615   0.953
    *d           0.000   0.953

[...]

Li-setup:
  name: Lithium
  id: b73562207f97a71b6967473b66fe8b65
  Z: 3.0
  valence: 1
  core: 2
  charge: 0.0
  file: /home/modules/software/GPAW-setups/0.9.20000/Li.LDA.gz
  compensation charges: gauss, rc=0.33, lmax=2
  cutoffs: 1.91(filt), 2.55(core),
  valence states:
                energy  radius
    2s(1.00)    -2.874   1.058
    2p(0.00)    -1.126   1.058
    *s          24.338   1.058

  Using partial waves for Li as LCAO basis

Reference energy: -196157.275402

Spin-polarized calculation.
Magnetic moment: 0.000000

Convergence criteria:
  Maximum total energy change: 0.0005 eV / electron
  Maximum integral of absolute density change: 0.0001 electrons
  Maximum integral of absolute eigenstate change: 4e-08 eV^2
  Maximum change in atomic force: 1e-06 eV / Ang
  Maximum number of iterations: 333

Symmetries present (total): 1

  ( 1  0  0)
  ( 0  1  0)
  ( 0  0  1)

144 k-points: 6 x 6 x 4 Monkhorst-Pack grid
144 k-points in the irreducible part of the Brillouin zone
       k-points in crystal coordinates                weights
   0:    -0.41666667   -0.41666667   -0.37500000          1/144
   1:    -0.41666667   -0.41666667   -0.12500000          1/144
   2:    -0.41666667   -0.41666667    0.12500000          1/144
   3:    -0.41666667   -0.41666667    0.37500000          1/144
   4:    -0.41666667   -0.25000000   -0.37500000          1/144
   5:    -0.41666667   -0.25000000   -0.12500000          1/144
   6:    -0.41666667   -0.25000000    0.12500000          1/144
   7:    -0.41666667   -0.25000000    0.37500000          1/144
   8:    -0.41666667   -0.08333333   -0.37500000          1/144
   9:    -0.41666667   -0.08333333   -0.12500000          1/144
          ...
 143:     0.41666667    0.41666667    0.37500000          1/144

Wave functions: Plane wave expansion
  Cutoff energy: 600.000 eV
  Number of coefficients (min, max): 9238, 9284
  Pulay-stress correction: 0.000000 eV/Ang^3 (de/decut=0.000000)
  Using FFTW library
  ScaLapack parameters: grid=1x1, blocksize=None
  Wavefunction extrapolation:
    Improved wavefunction reuse through dual PAW basis

  Fermi-Dirac: width=0.0010 eV

Eigensolver
   Davidson(niter=2, smin=None, normalize=True)

Densities:
  Coarse grid: 60*35*27 grid
  Fine grid: 120*70*54 grid
  Total Charge: 0.000000

Density mixing:
  Method: difference
  Backend: pulay
  Linear mixing parameter: 0.05
  Mixing with 5 old densities
  Damping of long wave oscillations: 50

Hamiltonian:
  XC and Coulomb potentials evaluated on a 120*70*54 grid
  Using the LDA Exchange-Correlation functional

Total number of cores used: 64
Parallelization over k-points: 16
Domain decomposition: 2 x 2 x 1

Number of atoms: 28
Number of atomic orbitals: 148
Number of bands in calculation: 112
Number of valence electrons: 180
Bands to converge: occupied

... initialized

Initializing position-dependent things.

Density initialized from atomic densities
Creating initial wave functions:
  112 bands from LCAO basis set

               O     O  P  O
            PO           OMn     O
                  O          MO
            O        Li O
             Mn  On          OP
         O         Li O
         Li     O P         O
       Li

Positions:
   0 O     -1.263197   -2.497779   -1.098475    ( 0.0000,  0.0000,  0.0000)
   1 O     -3.070823    2.922496    1.209491    ( 0.0000,  0.0000,  0.0000)
   2 O      1.985541    0.474863    1.428016    ( 0.0000,  0.0000,  0.0000)
   3 O      3.793120   -0.050100   -0.879950    ( 0.0000,  0.0000,  0.0000)
   4 O      1.985518    2.922485    1.428149    ( 0.0000,  0.0000,  0.0000)
   5 O      3.793144   -2.497790   -0.879818    ( 0.0000,  0.0000,  0.0000)
   6 O     -1.263220   -0.050157   -1.098342    ( 0.0000,  0.0000,  0.0000)
   7 O     -3.070798    0.474805    1.209623    ( 0.0000,  0.0000,  0.0000)
   8 O     -4.167835   -1.273920   -0.862116    ( 0.0000,  0.0000,  0.0000)
   9 O     -0.166037    1.698602    1.445528    ( 0.0000,  0.0000,  0.0000)
  10 O      4.890156    1.698625    1.191790    ( 0.0000,  0.0000,  0.0000)
  11 O      0.888358   -1.273896   -1.115855    ( 0.0000,  0.0000,  0.0000)
  12 Mn    -2.445557   -1.274211    0.312921    ( 0.0000,  0.0000,  1.0000)
  13 Mn    -1.888303    1.698892   -1.994948    ( 0.0000,  0.0000, -1.0000)
  14 Mn     3.167879    1.698917    0.016752    ( 0.0000,  0.0000, -1.0000)
  15 Mn     2.610624   -1.274187    2.324621    ( 0.0000,  0.0000,  1.0000)
  16 P     -0.529549   -1.273917   -1.724376    ( 0.0000,  0.0000,  0.0000)
  17 P     -3.794359    1.698599    0.583463    ( 0.0000,  0.0000,  0.0000)
  18 P      1.251870    1.698623    2.054050    ( 0.0000,  0.0000,  0.0000)
  19 P      4.526680   -1.273894   -0.253789    ( 0.0000,  0.0000,  0.0000)
  20 O     -0.544227   -1.273926    1.365380    ( 0.0000,  0.0000,  0.0000)
  21 O     -3.789411    1.698610   -0.942222    ( 0.0000,  0.0000,  0.0000)
  22 O      1.266548    1.698631   -1.035707    ( 0.0000,  0.0000,  0.0000)
  23 O      4.511733   -1.273905    1.271895    ( 0.0000,  0.0000,  0.0000)
  24 Li    -4.695087   -2.760584   -2.142877    ( 0.0000,  0.0000,  0.0000)
  25 Li     0.361147   -2.760561    0.164836    ( 0.0000,  0.0000,  0.0000)
  26 Li    -4.695074    0.212330   -2.142877    ( 0.0000,  0.0000,  0.0000)
  27 Li     0.361161    0.212353    0.164837    ( 0.0000,  0.0000,  0.0000)

Unit cell:
           periodic     x           y           z      points  spacing
  1. axis:    yes   10.112485    0.000045   -0.000035    60     0.1685
  2. axis:    yes    0.000026    5.945827    0.000001    35     0.1699
  3. axis:    yes   -0.000016    0.000000    4.615463    27     0.1709

  Lengths:  10.112485   5.945827   4.615463
  Angles:   89.999989  90.000396  89.999490

Effective grid spacing dv^(1/3) = 0.1698

                     log10-error:           total        iterations:
           time      wfs    density  force  energy       poisson  magmom
iter:   1  05:29:42                       -221.381271             +0.0000
iter:   2  05:30:03  -0.61  -0.93         -234.837740             +0.0000
iter:   3  05:30:23  -0.37  -0.97         -225.909996             -0.0000
iter:   4  05:30:43  -1.39  -1.29         -225.759335             +0.0000
iter:   5  05:31:03  -1.27  -1.39         -227.322507             +0.0000
iter:   6  05:31:23  -1.46  -1.46         -225.735112             +0.0000
iter:   7  05:31:43  -2.45  -2.04         -225.720330             +0.0000
iter:   8  05:32:03  -2.02  -1.99         -225.636134             +0.0000
iter:   9  05:32:23  -2.40  -2.02         -225.425161             +0.0000
iter:  10  05:32:43  -3.28  -2.60         -225.416775             +0.0000
iter:  11  05:33:03  -3.78  -2.88         -225.409701             +0.0000
iter:  12  05:33:23  -4.22  -3.02         -225.408200             +0.0000
iter:  13  05:33:43  -5.02  -3.27         -225.408028             +0.0000
iter:  14  05:34:03  -4.79  -3.33         -225.408172             +0.0000
iter:  15  05:34:23  -5.67  -3.40         -225.408259             +0.0000
iter:  16  05:34:44  -5.66  -3.38         -225.408112             -0.0000
iter:  17  05:35:04  -4.90  -3.51         -225.407804             -0.0000
iter:  18  05:35:24  -5.43  -3.51         -225.407862             -0.0000
iter:  19  05:35:44  -5.51  -3.63         -225.407873             +0.0000
iter:  20  05:36:04  -6.03  -3.86         -225.407805             +0.0000
iter:  21  05:36:24  -6.67  -4.00         -225.407812             +0.0000
iter:  22  05:36:48  -7.50  -4.08         -225.407814             +0.0000
iter:  23  05:37:08  -7.11  -4.10         -225.407807             +0.0000
iter:  24  05:37:29  -7.06  -4.19         -225.407808             +0.0000
iter:  25  05:37:53  -7.64  -4.28    -2.07-225.407806             +0.0000
iter:  26  05:38:18  -7.50  -4.34    -2.76-225.407805             -0.0000
iter:  27  05:38:38  -7.37  -4.45         -225.407806             +0.0000
iter:  28  05:39:03  -8.45  -4.61    -2.32-225.407806             +0.0000
iter:  29  05:39:28  -7.53  -4.65    -2.73-225.407806             +0.0000
iter:  30  05:39:53  -7.98  -4.75    -2.73-225.407806             +0.0000
iter:  31  05:40:17  -9.14  -4.89    -3.54-225.407806             -0.0000
iter:  32  05:40:42  -7.77  -4.90    -2.99-225.407805             +0.0000
iter:  33  05:41:07  -8.46  -5.01    -3.28-225.407805             +0.0000
iter:  34  05:41:32  -9.62  -5.45    -3.71-225.407805             +0.0000
iter:  35  05:41:56  -9.09  -5.47    -3.43-225.407805             +0.0000
iter:  36  05:42:21  -9.28  -5.49    -3.44-225.407805             +0.0000
iter:  37  05:42:46 -10.06  -5.68    -3.93-225.407805             +0.0000
iter:  38  05:43:10 -10.01  -5.70    -3.77-225.407805             +0.0000
iter:  39  05:43:35  -9.77  -5.73    -3.44-225.407805             +0.0000
iter:  40  05:44:00 -11.31  -6.07    -4.57-225.407805             +0.0000
iter:  41  05:44:25  -9.77  -6.09    -3.74-225.407805             +0.0000
iter:  42  05:44:50 -10.55  -6.12    -3.95-225.407805             +0.0000
iter:  43  05:45:14 -11.41  -6.68    -4.75-225.407805             +0.0000
iter:  44  05:45:39 -11.64  -6.90    -4.83-225.407805             +0.0000
iter:  45  05:46:04 -12.06  -7.07    -5.02-225.407805             +0.0000
iter:  46  05:46:28 -12.88  -7.40    -5.67-225.407805             +0.0000
iter:  47  05:46:53 -13.47  -7.44    -5.77-225.407805             -0.0000
iter:  48  05:47:18 -12.93  -7.53    -5.33-225.407805             -0.0000
iter:  49  05:47:42 -13.82  -7.77    -5.67-225.407805             +0.0000
iter:  50  05:48:07 -14.22  -7.89    -5.70-225.407805             +0.0000
iter:  51  05:48:32 -14.81  -8.19    -6.27-225.407805             +0.0000

Converged after 51 iterations.

Dipole moment: (19.063678, -1.419646, -4.182679) |e|*Ang

Total magnetic moment: (0.000000, 0.000000, 0.000000)
Local magnetic moments:
   0 O  ( 0.000000,  0.000000,  0.000640)
   1 O  ( 0.000000,  0.000000, -0.000826)
   2 O  ( 0.000000,  0.000000, -0.000613)
   3 O  ( 0.000000,  0.000000,  0.000737)
   4 O  ( 0.000000,  0.000000, -0.000617)
   5 O  ( 0.000000,  0.000000,  0.000741)
   6 O  ( 0.000000,  0.000000,  0.000635)
   7 O  ( 0.000000,  0.000000, -0.000822)
   8 O  ( 0.000000,  0.000000,  0.022466)
   9 O  ( 0.000000,  0.000000, -0.022427)
  10 O  ( 0.000000,  0.000000, -0.022519)
  11 O  ( 0.000000,  0.000000,  0.022298)
  12 Mn ( 0.000000,  0.000000,  4.575195)
  13 Mn ( 0.000000,  0.000000, -4.574876)
  14 Mn ( 0.000000,  0.000000, -4.574964)
  15 Mn ( 0.000000,  0.000000,  4.575054)
  16 P  ( 0.000000,  0.000000,  0.000815)
  17 P  ( 0.000000,  0.000000, -0.000681)
  18 P  ( 0.000000,  0.000000, -0.000807)
  19 P  ( 0.000000,  0.000000,  0.000791)
  20 O  ( 0.000000,  0.000000,  0.020725)
  21 O  ( 0.000000,  0.000000, -0.020874)
  22 O  ( 0.000000,  0.000000, -0.020623)
  23 O  ( 0.000000,  0.000000,  0.020721)
  24 Li ( 0.000000,  0.000000, -0.000016)
  25 Li ( 0.000000,  0.000000,  0.000001)
  26 Li ( 0.000000,  0.000000, -0.000016)
  27 Li ( 0.000000,  0.000000,  0.000001)

Energy contributions relative to reference atoms: (reference = -196157.275402)

Kinetic:       +296.827246
Potential:     -256.367950
External:        +0.000000
XC:            -267.647845
Entropy (-ST):   -0.000000
Local:           +1.780743
Free energy:   -225.407805
Extrapolated:  -225.407805

Spin contamination: 9.697356 electrons
Showing only first 2 kpts
                      Up                     Down
 Kpt  Band  Eigenvalues  Occupancy  Eigenvalues  Occupancy
  0    88      5.10103    0.00694      5.10997    0.00694
  0    89      5.15791    0.00694      5.17442    0.00694
  0    90      9.64202    0.00000      9.63779    0.00000
  0    91      9.67398    0.00000      9.67599    0.00000

  1    88      5.11261    0.00694      5.12041    0.00694
  1    89      5.16724    0.00694      5.18440    0.00694
  1    90      9.51796    0.00000      9.51831    0.00000
  1    91      9.55265    0.00000      9.55128    0.00000

Fermi level: 6.36973

Gap: 3.782 eV
Transition (v -> c):
  (s=1, k=68, n=89, [-0.08, 0.42, -0.38]) -> (s=0, k=58, n=90, [-0.08, -0.08, 0.12])
Writing to born-0.01-17x+.gpw (mode='all')