User:   madkru@g035.nifl.fysik.dtu.dk
Date:   Sun Mar 21 17:18:00 2021
Arch:   x86_64
Pid:    44316
Python: 3.7.4
gpaw:   /home/niflheim/madkru/venv_folder/gpaw/gpaw (d0d1ca1c71)
_gpaw:  /home/niflheim/madkru/venv_folder/gpaw/build/lib.linux-x86_64-sandybridge-3.7/
        _gpaw.cpython-37m-x86_64-linux-gnu.so (4fd39e8b1e)
ase:    /home/niflheim/madkru/venv_folder/ase/ase (version 3.21.0b1-7e6c206a91)
numpy:  /home/niflheim/madkru/venv_folder/lib/python3.7/site-packages/numpy (version 1.19.4)
scipy:  /home/niflheim/madkru/venv_folder/lib/python3.7/site-packages/scipy (version 1.5.4)
units:  Angstrom and eV
cores: 32
OMP_NUM_THREADS: 1

Input parameters:
  convergence: {bands: occupied,
                density: 0.0001,
                eigenstates: 4e-08,
                energy: 0.0005,
                forces: 1e-06}
  kpts: [6 6 4]
  mode: {ecut: 600.0,
         gammacentered: False,
         name: pw}
  occupations: {fixmagmom: False,
                name: fermi-dirac,
                width: 0.001}
  setups: {Mn: :d,3.0}
  symmetry: {point_group: False,
             time_reversal: False}

System changes: positions, numbers, cell, pbc, initial_charges, initial_magmoms

Initialize ...

O-setup:
  name: Oxygen
  id: 9b9d51c344dea68c822856295a461509
  Z: 8.0
  valence: 6
  core: 2
  charge: 0.0
  file: /home/modules/software/GPAW-setups/0.9.20000/O.LDA.gz
  compensation charges: gauss, rc=0.21, lmax=2
  cutoffs: 1.17(filt), 0.83(core),
  valence states:
                energy  radius
    2s(2.00)   -23.752   0.688
    2p(4.00)    -9.195   0.598
    *s           3.459   0.688
    *p          18.016   0.598
    *d           0.000   0.619

  Using partial waves for O as LCAO basis

Mn-setup:
  name: Manganese
  id: 0d715a8018be061a6e9ea6f2d364ac92
  Z: 25.0
  valence: 15
  core: 10
  charge: 0.0
  Hubbard U: 3.000000 eV (l=2, scale=True)
  file: /home/modules/software/GPAW-setups/0.9.20000/Mn.LDA.gz
  compensation charges: gauss, rc=0.38, lmax=2
  cutoffs: 2.14(filt), 0.86(core),
  valence states:
                energy  radius
    3s(2.00)   -85.387   1.275
    4s(2.00)    -5.282   1.275
    3p(6.00)   -54.493   1.281
    4p(0.00)    -1.471   1.281
    3d(5.00)    -7.009   1.138
    *d          20.203   1.138

[...]

P-setup:
  name: Phosphorus
  id: a5561c299094968922a179ab894d2e2d
  Z: 15.0
  valence: 5
  core: 10
  charge: 0.0
  file: /home/modules/software/GPAW-setups/0.9.20000/P.LDA.gz
  compensation charges: gauss, rc=0.30, lmax=2
  cutoffs: 1.69(filt), 1.81(core),
  valence states:
                energy  radius
    3s(2.00)   -14.015   0.953
    3p(3.00)    -5.596   0.953
    *s          13.197   0.953
    *p          21.615   0.953
    *d           0.000   0.953

[...]

Li-setup:
  name: Lithium
  id: b73562207f97a71b6967473b66fe8b65
  Z: 3.0
  valence: 1
  core: 2
  charge: 0.0
  file: /home/modules/software/GPAW-setups/0.9.20000/Li.LDA.gz
  compensation charges: gauss, rc=0.33, lmax=2
  cutoffs: 1.91(filt), 2.55(core),
  valence states:
                energy  radius
    2s(1.00)    -2.874   1.058
    2p(0.00)    -1.126   1.058
    *s          24.338   1.058

  Using partial waves for Li as LCAO basis

Reference energy: -196157.275402

Spin-polarized calculation.
Magnetic moment: 0.000000

Convergence criteria:
  Maximum total energy change: 0.0005 eV / electron
  Maximum integral of absolute density change: 0.0001 electrons
  Maximum integral of absolute eigenstate change: 4e-08 eV^2
  Maximum change in atomic force: 1e-06 eV / Ang
  Maximum number of iterations: 333

Symmetries present (total): 1

  ( 1  0  0)
  ( 0  1  0)
  ( 0  0  1)

144 k-points: 6 x 6 x 4 Monkhorst-Pack grid
144 k-points in the irreducible part of the Brillouin zone
       k-points in crystal coordinates                weights
   0:    -0.41666667   -0.41666667   -0.37500000          1/144
   1:    -0.41666667   -0.41666667   -0.12500000          1/144
   2:    -0.41666667   -0.41666667    0.12500000          1/144
   3:    -0.41666667   -0.41666667    0.37500000          1/144
   4:    -0.41666667   -0.25000000   -0.37500000          1/144
   5:    -0.41666667   -0.25000000   -0.12500000          1/144
   6:    -0.41666667   -0.25000000    0.12500000          1/144
   7:    -0.41666667   -0.25000000    0.37500000          1/144
   8:    -0.41666667   -0.08333333   -0.37500000          1/144
   9:    -0.41666667   -0.08333333   -0.12500000          1/144
          ...
 143:     0.41666667    0.41666667    0.37500000          1/144

Wave functions: Plane wave expansion
  Cutoff energy: 600.000 eV
  Number of coefficients (min, max): 9238, 9284
  Pulay-stress correction: 0.000000 eV/Ang^3 (de/decut=0.000000)
  Using FFTW library
  ScaLapack parameters: grid=1x1, blocksize=None
  Wavefunction extrapolation:
    Improved wavefunction reuse through dual PAW basis

  Fermi-Dirac: width=0.0010 eV

Eigensolver
   Davidson(niter=2, smin=None, normalize=True)

Densities:
  Coarse grid: 60*35*27 grid
  Fine grid: 120*70*54 grid
  Total Charge: 0.000000

Density mixing:
  Method: difference
  Backend: pulay
  Linear mixing parameter: 0.05
  Mixing with 5 old densities
  Damping of long wave oscillations: 50

Hamiltonian:
  XC and Coulomb potentials evaluated on a 120*70*54 grid
  Using the LDA Exchange-Correlation functional

Total number of cores used: 32
Parallelization over k-points: 16
Domain decomposition: 2 x 1 x 1

Number of atoms: 28
Number of atomic orbitals: 148
Number of bands in calculation: 112
Number of valence electrons: 180
Bands to converge: occupied

... initialized

Initializing position-dependent things.

Density initialized from atomic densities
Creating initial wave functions:
  112 bands from LCAO basis set

               O     O  P  O
            PO           OMn     O
                  O          MO
            O        Li O
             Mn  On          OP
         O         Li O
         Li     O P         O
       Li

Positions:
   0 O     -1.263197   -2.497779   -1.098475    ( 0.0000,  0.0000,  0.0000)
   1 O     -3.070823    2.922496    1.209491    ( 0.0000,  0.0000,  0.0000)
   2 O      1.985541    0.474863    1.438016    ( 0.0000,  0.0000,  0.0000)
   3 O      3.793120   -0.050100   -0.879950    ( 0.0000,  0.0000,  0.0000)
   4 O      1.985518    2.922485    1.428149    ( 0.0000,  0.0000,  0.0000)
   5 O      3.793144   -2.497790   -0.879818    ( 0.0000,  0.0000,  0.0000)
   6 O     -1.263220   -0.050157   -1.098342    ( 0.0000,  0.0000,  0.0000)
   7 O     -3.070798    0.474805    1.209623    ( 0.0000,  0.0000,  0.0000)
   8 O     -4.167835   -1.273920   -0.862116    ( 0.0000,  0.0000,  0.0000)
   9 O     -0.166037    1.698602    1.445528    ( 0.0000,  0.0000,  0.0000)
  10 O      4.890156    1.698625    1.191790    ( 0.0000,  0.0000,  0.0000)
  11 O      0.888358   -1.273896   -1.115855    ( 0.0000,  0.0000,  0.0000)
  12 Mn    -2.445557   -1.274211    0.312921    ( 0.0000,  0.0000,  1.0000)
  13 Mn    -1.888303    1.698892   -1.994948    ( 0.0000,  0.0000, -1.0000)
  14 Mn     3.167879    1.698917    0.016752    ( 0.0000,  0.0000, -1.0000)
  15 Mn     2.610624   -1.274187    2.324621    ( 0.0000,  0.0000,  1.0000)
  16 P     -0.529549   -1.273917   -1.724376    ( 0.0000,  0.0000,  0.0000)
  17 P     -3.804359    1.698599    0.583463    ( 0.0000,  0.0000,  0.0000)
  18 P      1.251870    1.698623    2.054050    ( 0.0000,  0.0000,  0.0000)
  19 P      4.526680   -1.273894   -0.253789    ( 0.0000,  0.0000,  0.0000)
  20 O     -0.544227   -1.273926    1.365380    ( 0.0000,  0.0000,  0.0000)
  21 O     -3.789411    1.698610   -0.942222    ( 0.0000,  0.0000,  0.0000)
  22 O      1.266548    1.698631   -1.035707    ( 0.0000,  0.0000,  0.0000)
  23 O      4.511733   -1.273905    1.271895    ( 0.0000,  0.0000,  0.0000)
  24 Li    -4.695087   -2.760584   -2.142877    ( 0.0000,  0.0000,  0.0000)
  25 Li     0.361147   -2.760561    0.164836    ( 0.0000,  0.0000,  0.0000)
  26 Li    -4.695074    0.212330   -2.142877    ( 0.0000,  0.0000,  0.0000)
  27 Li     0.361161    0.212353    0.164837    ( 0.0000,  0.0000,  0.0000)

Unit cell:
           periodic     x           y           z      points  spacing
  1. axis:    yes   10.112485    0.000045   -0.000035    60     0.1685
  2. axis:    yes    0.000026    5.945827    0.000001    35     0.1699
  3. axis:    yes   -0.000016    0.000000    4.615463    27     0.1709

  Lengths:  10.112485   5.945827   4.615463
  Angles:   89.999989  90.000396  89.999490

Effective grid spacing dv^(1/3) = 0.1698

                     log10-error:           total        iterations:
           time      wfs    density  force  energy       poisson  magmom
iter:   1  17:21:14                       -221.373754             +0.0000
iter:   2  17:21:51  -0.61  -0.93         -234.837839             +0.0000
iter:   3  17:22:28  -0.37  -0.97         -225.913627             -0.0000
iter:   4  17:23:06  -1.39  -1.29         -225.761093             +0.0000
iter:   5  17:23:43  -1.27  -1.39         -227.330170             +0.0000
iter:   6  17:24:20  -1.46  -1.46         -225.737042             +0.0000
iter:   7  17:24:57  -2.47  -2.04         -225.724494             +0.0000
iter:   8  17:25:35  -2.14  -1.99         -225.593383             +0.0000
iter:   9  17:26:12  -2.46  -2.08         -225.431999             +0.0000
iter:  10  17:26:49  -3.31  -2.55         -225.422098             +0.0000
iter:  11  17:27:26  -3.66  -2.81         -225.411787             +0.0000
iter:  12  17:28:04  -4.10  -3.04         -225.410599             +0.0000
iter:  13  17:28:41  -5.10  -3.29         -225.410463             -0.0000
iter:  14  17:29:18  -5.39  -3.32         -225.410293             +0.0000
iter:  15  17:29:55  -6.05  -3.43         -225.410297             +0.0000
iter:  16  17:30:33  -5.24  -3.47         -225.410644             -0.0000
iter:  17  17:31:10  -5.91  -3.58         -225.410524             -0.0000
iter:  18  17:31:47  -5.20  -3.70         -225.410235             -0.0000
iter:  19  17:32:24  -6.06  -4.11         -225.410248             -0.0000
iter:  20  17:33:01  -7.21  -4.40         -225.410247             -0.0000
iter:  21  17:33:39  -7.39  -4.44         -225.410246             -0.0000
iter:  22  17:34:26  -7.69  -4.54         -225.410248             -0.0000
iter:  23  17:35:13  -8.64  -4.53    -3.51-225.410247             -0.0000
iter:  24  17:35:50  -7.16  -4.57         -225.410245             -0.0000
iter:  25  17:36:37  -8.35  -4.91    -2.47-225.410245             -0.0000
iter:  26  17:37:24  -7.82  -4.97    -2.76-225.410245             -0.0000
iter:  27  17:38:10  -8.44  -5.12    -2.93-225.410245             -0.0000
iter:  28  17:38:57  -9.35  -5.35    -3.47-225.410245             -0.0000
iter:  29  17:39:44  -8.73  -5.35    -3.19-225.410245             -0.0000
iter:  30  17:40:31  -9.75  -5.53    -3.80-225.410245             -0.0000
iter:  31  17:41:18 -10.25  -5.55    -3.62-225.410245             -0.0000
iter:  32  17:42:05  -9.93  -5.62    -3.45-225.410245             -0.0000
iter:  33  17:42:52 -10.29  -5.74    -4.14-225.410245             -0.0000
iter:  34  17:43:39 -10.00  -5.83    -3.55-225.410245             -0.0000
iter:  35  17:44:26 -10.17  -6.16    -4.29-225.410245             -0.0000
iter:  36  17:45:13 -11.12  -6.41    -4.43-225.410245             -0.0000
iter:  37  17:46:00 -10.91  -6.50    -4.63-225.410245             -0.0000
iter:  38  17:46:47 -11.16  -6.59    -4.57-225.410245             -0.0000
iter:  39  17:47:34 -11.88  -6.66    -4.74-225.410245             -0.0000
iter:  40  17:48:21 -12.53  -6.85    -5.14-225.410245             -0.0000
iter:  41  17:49:08 -12.23  -6.89    -5.01-225.410245             -0.0000
iter:  42  17:49:54 -12.51  -6.95    -4.79-225.410245             -0.0000
iter:  43  17:50:41 -12.74  -7.14    -5.54-225.410245             -0.0000
iter:  44  17:51:28 -12.31  -7.20    -5.32-225.410245             -0.0000
iter:  45  17:52:15 -13.38  -7.22    -5.44-225.410245             -0.0000
iter:  46  17:53:02 -13.09  -7.34    -5.16-225.410245             -0.0000
iter:  47  17:53:49 -13.73  -7.49    -5.76-225.410245             -0.0000
iter:  48  17:54:36 -12.75  -7.54    -5.24-225.410245             -0.0000
iter:  49  17:55:23 -13.49  -7.90    -5.40-225.410245             -0.0000
iter:  50  17:56:10 -14.12  -8.19    -5.89-225.410245             -0.0000
iter:  51  17:56:57 -14.63  -8.43    -6.28-225.410245             -0.0000

Converged after 51 iterations.

Dipole moment: (19.053429, -1.425182, -4.186830) |e|*Ang

Total magnetic moment: (0.000000, 0.000000, -0.000000)
Local magnetic moments:
   0 O  ( 0.000000,  0.000000,  0.000674)
   1 O  ( 0.000000,  0.000000, -0.000666)
   2 O  ( 0.000000,  0.000000, -0.000469)
   3 O  ( 0.000000,  0.000000,  0.000721)
   4 O  ( 0.000000,  0.000000, -0.000633)
   5 O  ( 0.000000,  0.000000,  0.000579)
   6 O  ( 0.000000,  0.000000,  0.000668)
   7 O  ( 0.000000,  0.000000, -0.000665)
   8 O  ( 0.000000,  0.000000,  0.022365)
   9 O  ( 0.000000,  0.000000, -0.022298)
  10 O  ( 0.000000,  0.000000, -0.022350)
  11 O  ( 0.000000,  0.000000,  0.022411)
  12 Mn ( 0.000000,  0.000000,  4.575071)
  13 Mn ( 0.000000,  0.000000, -4.575034)
  14 Mn ( 0.000000,  0.000000, -4.575406)
  15 Mn ( 0.000000,  0.000000,  4.574684)
  16 P  ( 0.000000,  0.000000,  0.000817)
  17 P  ( 0.000000,  0.000000, -0.000808)
  18 P  ( 0.000000,  0.000000, -0.000655)
  19 P  ( 0.000000,  0.000000,  0.000824)
  20 O  ( 0.000000,  0.000000,  0.020717)
  21 O  ( 0.000000,  0.000000, -0.020706)
  22 O  ( 0.000000,  0.000000, -0.020705)
  23 O  ( 0.000000,  0.000000,  0.020723)
  24 Li ( 0.000000,  0.000000,  0.000001)
  25 Li ( 0.000000,  0.000000,  0.000000)
  26 Li ( 0.000000,  0.000000, -0.000001)
  27 Li ( 0.000000,  0.000000,  0.000007)

Energy contributions relative to reference atoms: (reference = -196157.275402)

Kinetic:       +297.090562
Potential:     -256.576002
External:        +0.000000
XC:            -267.704816
Entropy (-ST):   -0.000000
Local:           +1.780012
Free energy:   -225.410245
Extrapolated:  -225.410245

Spin contamination: 9.697306 electrons
Showing only first 2 kpts
                      Up                     Down
 Kpt  Band  Eigenvalues  Occupancy  Eigenvalues  Occupancy
  0    88      5.11102    0.00694      5.10699    0.00694
  0    89      5.16260    0.00694      5.15862    0.00694
  0    90      9.64881    0.00000      9.65233    0.00000
  0    91      9.66999    0.00000      9.67038    0.00000

  1    88      5.12241    0.00694      5.11862    0.00694
  1    89      5.17183    0.00694      5.16736    0.00694
  1    90      9.53230    0.00000      9.53459    0.00000
  1    91      9.54474    0.00000      9.54404    0.00000

Fermi level: 6.37009

Gap: 3.795 eV
Transition (v -> c):
  (s=0, k=71, n=89, [-0.08, 0.42, 0.38]) -> (s=1, k=81, n=90, [0.08, -0.08, -0.12])
Writing to born-0.01-2z+.gpw (mode='all')