User:   madkru@g035.nifl.fysik.dtu.dk
Date:   Mon Mar 22 22:25:52 2021
Arch:   x86_64
Pid:    44316
Python: 3.7.4
gpaw:   /home/niflheim/madkru/venv_folder/gpaw/gpaw (d0d1ca1c71)
_gpaw:  /home/niflheim/madkru/venv_folder/gpaw/build/lib.linux-x86_64-sandybridge-3.7/
        _gpaw.cpython-37m-x86_64-linux-gnu.so (4fd39e8b1e)
ase:    /home/niflheim/madkru/venv_folder/ase/ase (version 3.21.0b1-7e6c206a91)
numpy:  /home/niflheim/madkru/venv_folder/lib/python3.7/site-packages/numpy (version 1.19.4)
scipy:  /home/niflheim/madkru/venv_folder/lib/python3.7/site-packages/scipy (version 1.5.4)
units:  Angstrom and eV
cores: 32
OMP_NUM_THREADS: 1

Input parameters:
  convergence: {bands: occupied,
                density: 0.0001,
                eigenstates: 4e-08,
                energy: 0.0005,
                forces: 1e-06}
  kpts: [6 6 4]
  mode: {ecut: 600.0,
         gammacentered: False,
         name: pw}
  occupations: {fixmagmom: False,
                name: fermi-dirac,
                width: 0.001}
  setups: {Mn: :d,3.0}
  symmetry: {point_group: False,
             time_reversal: False}

System changes: positions, numbers, cell, pbc, initial_charges, initial_magmoms

Initialize ...

O-setup:
  name: Oxygen
  id: 9b9d51c344dea68c822856295a461509
  Z: 8.0
  valence: 6
  core: 2
  charge: 0.0
  file: /home/modules/software/GPAW-setups/0.9.20000/O.LDA.gz
  compensation charges: gauss, rc=0.21, lmax=2
  cutoffs: 1.17(filt), 0.83(core),
  valence states:
                energy  radius
    2s(2.00)   -23.752   0.688
    2p(4.00)    -9.195   0.598
    *s           3.459   0.688
    *p          18.016   0.598
    *d           0.000   0.619

  Using partial waves for O as LCAO basis

Mn-setup:
  name: Manganese
  id: 0d715a8018be061a6e9ea6f2d364ac92
  Z: 25.0
  valence: 15
  core: 10
  charge: 0.0
  Hubbard U: 3.000000 eV (l=2, scale=True)
  file: /home/modules/software/GPAW-setups/0.9.20000/Mn.LDA.gz
  compensation charges: gauss, rc=0.38, lmax=2
  cutoffs: 2.14(filt), 0.86(core),
  valence states:
                energy  radius
    3s(2.00)   -85.387   1.275
    4s(2.00)    -5.282   1.275
    3p(6.00)   -54.493   1.281
    4p(0.00)    -1.471   1.281
    3d(5.00)    -7.009   1.138
    *d          20.203   1.138

[...]

P-setup:
  name: Phosphorus
  id: a5561c299094968922a179ab894d2e2d
  Z: 15.0
  valence: 5
  core: 10
  charge: 0.0
  file: /home/modules/software/GPAW-setups/0.9.20000/P.LDA.gz
  compensation charges: gauss, rc=0.30, lmax=2
  cutoffs: 1.69(filt), 1.81(core),
  valence states:
                energy  radius
    3s(2.00)   -14.015   0.953
    3p(3.00)    -5.596   0.953
    *s          13.197   0.953
    *p          21.615   0.953
    *d           0.000   0.953

[...]

Li-setup:
  name: Lithium
  id: b73562207f97a71b6967473b66fe8b65
  Z: 3.0
  valence: 1
  core: 2
  charge: 0.0
  file: /home/modules/software/GPAW-setups/0.9.20000/Li.LDA.gz
  compensation charges: gauss, rc=0.33, lmax=2
  cutoffs: 1.91(filt), 2.55(core),
  valence states:
                energy  radius
    2s(1.00)    -2.874   1.058
    2p(0.00)    -1.126   1.058
    *s          24.338   1.058

  Using partial waves for Li as LCAO basis

Reference energy: -196157.275402

Spin-polarized calculation.
Magnetic moment: 0.000000

Convergence criteria:
  Maximum total energy change: 0.0005 eV / electron
  Maximum integral of absolute density change: 0.0001 electrons
  Maximum integral of absolute eigenstate change: 4e-08 eV^2
  Maximum change in atomic force: 1e-06 eV / Ang
  Maximum number of iterations: 333

Symmetries present (total): 1

  ( 1  0  0)
  ( 0  1  0)
  ( 0  0  1)

144 k-points: 6 x 6 x 4 Monkhorst-Pack grid
144 k-points in the irreducible part of the Brillouin zone
       k-points in crystal coordinates                weights
   0:    -0.41666667   -0.41666667   -0.37500000          1/144
   1:    -0.41666667   -0.41666667   -0.12500000          1/144
   2:    -0.41666667   -0.41666667    0.12500000          1/144
   3:    -0.41666667   -0.41666667    0.37500000          1/144
   4:    -0.41666667   -0.25000000   -0.37500000          1/144
   5:    -0.41666667   -0.25000000   -0.12500000          1/144
   6:    -0.41666667   -0.25000000    0.12500000          1/144
   7:    -0.41666667   -0.25000000    0.37500000          1/144
   8:    -0.41666667   -0.08333333   -0.37500000          1/144
   9:    -0.41666667   -0.08333333   -0.12500000          1/144
          ...
 143:     0.41666667    0.41666667    0.37500000          1/144

Wave functions: Plane wave expansion
  Cutoff energy: 600.000 eV
  Number of coefficients (min, max): 9238, 9284
  Pulay-stress correction: 0.000000 eV/Ang^3 (de/decut=0.000000)
  Using FFTW library
  ScaLapack parameters: grid=1x1, blocksize=None
  Wavefunction extrapolation:
    Improved wavefunction reuse through dual PAW basis

  Fermi-Dirac: width=0.0010 eV

Eigensolver
   Davidson(niter=2, smin=None, normalize=True)

Densities:
  Coarse grid: 60*35*27 grid
  Fine grid: 120*70*54 grid
  Total Charge: 0.000000

Density mixing:
  Method: difference
  Backend: pulay
  Linear mixing parameter: 0.05
  Mixing with 5 old densities
  Damping of long wave oscillations: 50

Hamiltonian:
  XC and Coulomb potentials evaluated on a 120*70*54 grid
  Using the LDA Exchange-Correlation functional

Total number of cores used: 32
Parallelization over k-points: 16
Domain decomposition: 2 x 1 x 1

Number of atoms: 28
Number of atomic orbitals: 148
Number of bands in calculation: 112
Number of valence electrons: 180
Bands to converge: occupied

... initialized

Initializing position-dependent things.

Density initialized from atomic densities
Creating initial wave functions:
  112 bands from LCAO basis set

               O     O  P  O
            PO           OMn     O
                  O          MO
            O        Li O
             Mn  On          OP
         O         Li O
         Li     O P         O
       Li

Positions:
   0 O     -1.263197   -2.497779   -1.098475    ( 0.0000,  0.0000,  0.0000)
   1 O     -3.070823    2.922496    1.209491    ( 0.0000,  0.0000,  0.0000)
   2 O      1.985541    0.474863    1.428016    ( 0.0000,  0.0000,  0.0000)
   3 O      3.793120   -0.050100   -0.879950    ( 0.0000,  0.0000,  0.0000)
   4 O      1.985518    2.922485    1.428149    ( 0.0000,  0.0000,  0.0000)
   5 O      3.793144   -2.497790   -0.879818    ( 0.0000,  0.0000,  0.0000)
   6 O     -1.263220   -0.050157   -1.098342    ( 0.0000,  0.0000,  0.0000)
   7 O     -3.070798    0.474805    1.209623    ( 0.0000,  0.0000,  0.0000)
   8 O     -4.167835   -1.273920   -0.862116    ( 0.0000,  0.0000,  0.0000)
   9 O     -0.176037    1.698602    1.445528    ( 0.0000,  0.0000,  0.0000)
  10 O      4.890156    1.698625    1.191790    ( 0.0000,  0.0000,  0.0000)
  11 O      0.888358   -1.273896   -1.115855    ( 0.0000,  0.0000,  0.0000)
  12 Mn    -2.445557   -1.274211    0.312921    ( 0.0000,  0.0000,  1.0000)
  13 Mn    -1.888303    1.698892   -1.994948    ( 0.0000,  0.0000, -1.0000)
  14 Mn     3.167879    1.698917    0.016752    ( 0.0000,  0.0000, -1.0000)
  15 Mn     2.610624   -1.274187    2.324621    ( 0.0000,  0.0000,  1.0000)
  16 P     -0.529549   -1.273917   -1.724376    ( 0.0000,  0.0000,  0.0000)
  17 P     -3.804359    1.698599    0.583463    ( 0.0000,  0.0000,  0.0000)
  18 P      1.251870    1.698623    2.054050    ( 0.0000,  0.0000,  0.0000)
  19 P      4.526680   -1.273894   -0.253789    ( 0.0000,  0.0000,  0.0000)
  20 O     -0.544227   -1.273926    1.365380    ( 0.0000,  0.0000,  0.0000)
  21 O     -3.789411    1.698610   -0.942222    ( 0.0000,  0.0000,  0.0000)
  22 O      1.266548    1.698631   -1.035707    ( 0.0000,  0.0000,  0.0000)
  23 O      4.511733   -1.273905    1.271895    ( 0.0000,  0.0000,  0.0000)
  24 Li    -4.695087   -2.760584   -2.142877    ( 0.0000,  0.0000,  0.0000)
  25 Li     0.361147   -2.760561    0.164836    ( 0.0000,  0.0000,  0.0000)
  26 Li    -4.695074    0.212330   -2.142877    ( 0.0000,  0.0000,  0.0000)
  27 Li     0.361161    0.212353    0.164837    ( 0.0000,  0.0000,  0.0000)

Unit cell:
           periodic     x           y           z      points  spacing
  1. axis:    yes   10.112485    0.000045   -0.000035    60     0.1685
  2. axis:    yes    0.000026    5.945827    0.000001    35     0.1699
  3. axis:    yes   -0.000016    0.000000    4.615463    27     0.1709

  Lengths:  10.112485   5.945827   4.615463
  Angles:   89.999989  90.000396  89.999490

Effective grid spacing dv^(1/3) = 0.1698

                     log10-error:           total        iterations:
           time      wfs    density  force  energy       poisson  magmom
iter:   1  22:29:08                       -221.367613             +0.0000
iter:   2  22:29:45  -0.61  -0.93         -234.810300             +0.0000
iter:   3  22:30:22  -0.37  -0.97         -225.905291             -0.0000
iter:   4  22:31:00  -1.39  -1.29         -225.760428             +0.0000
iter:   5  22:31:37  -1.27  -1.39         -227.311770             +0.0000
iter:   6  22:32:15  -1.47  -1.46         -225.735513             +0.0000
iter:   7  22:32:52  -2.46  -2.04         -225.720295             +0.0000
iter:   8  22:33:30  -2.03  -1.99         -225.635252             +0.0000
iter:   9  22:34:07  -2.40  -2.03         -225.426757             +0.0000
iter:  10  22:34:44  -3.30  -2.60         -225.418556             +0.0000
iter:  11  22:35:22  -3.79  -2.86         -225.410862             +0.0000
iter:  12  22:35:59  -4.21  -3.00         -225.409233             +0.0000
iter:  13  22:36:36  -5.01  -3.27         -225.409006             +0.0000
iter:  14  22:37:14  -4.99  -3.33         -225.409030             +0.0000
iter:  15  22:37:51  -6.05  -3.42         -225.408894             +0.0000
iter:  16  22:38:29  -4.97  -3.47         -225.409005             -0.0000
iter:  17  22:39:06  -6.45  -3.50         -225.409030             -0.0000
iter:  18  22:39:43  -5.53  -3.51         -225.408976             -0.0000
iter:  19  22:40:20  -5.74  -3.57         -225.408940             -0.0000
iter:  20  22:40:58  -6.90  -3.69         -225.408903             +0.0000
iter:  21  22:41:35  -6.25  -3.73         -225.408842             +0.0000
iter:  22  22:42:12  -7.02  -3.85         -225.408855             +0.0000
iter:  23  22:42:50  -6.59  -3.92         -225.408872             +0.0000
iter:  24  22:43:27  -6.10  -4.00         -225.408808             +0.0000
iter:  25  22:44:04  -7.27  -4.16         -225.408810             +0.0000
iter:  26  22:44:51  -7.45  -4.26         -225.408808             +0.0000
iter:  27  22:45:29  -6.47  -4.37         -225.408808             +0.0000
iter:  28  22:46:06  -7.25  -4.77         -225.408803             +0.0000
iter:  29  22:46:53  -8.25  -5.18    -2.09-225.408803             +0.0000
iter:  30  22:47:40  -8.37  -5.24    -3.20-225.408803             +0.0000
iter:  31  22:48:27  -7.97  -5.29    -2.95-225.408803             +0.0000
iter:  32  22:49:14  -9.17  -5.54    -3.46-225.408803             +0.0000
iter:  33  22:50:01  -8.95  -5.69    -3.87-225.408803             +0.0000
iter:  34  22:50:48  -8.73  -5.71    -3.64-225.408803             +0.0000
iter:  35  22:51:35  -9.33  -5.76    -3.62-225.408803             +0.0000
iter:  36  22:52:22 -10.25  -6.01    -4.67-225.408803             +0.0000
iter:  37  22:53:09  -9.96  -6.02    -3.82-225.408803             +0.0000
iter:  38  22:53:56 -10.74  -6.32    -4.39-225.408803             +0.0000
iter:  39  22:54:44 -10.75  -6.48    -4.49-225.408803             +0.0000
iter:  40  22:55:31 -11.34  -6.64    -4.35-225.408803             +0.0000
iter:  41  22:56:18 -11.31  -6.58    -4.70-225.408803             +0.0000
iter:  42  22:57:05 -11.46  -6.72    -4.69-225.408803             +0.0000
iter:  43  22:57:52 -12.67  -6.84    -5.28-225.408803             -0.0000
iter:  44  22:58:39 -12.27  -6.87    -4.91-225.408803             +0.0000
iter:  45  22:59:26 -13.05  -7.14    -5.30-225.408803             +0.0000
iter:  46  23:00:12 -12.93  -7.16    -5.05-225.408803             -0.0000
iter:  47  23:00:59 -12.58  -7.18    -4.84-225.408803             +0.0000
iter:  48  23:01:46 -12.46  -7.30    -5.10-225.408803             +0.0000
iter:  49  23:02:33 -13.58  -7.84    -6.05-225.408803             +0.0000

Converged after 49 iterations.

Dipole moment: (19.274372, -1.425579, -4.182499) |e|*Ang

Total magnetic moment: (0.000000, 0.000000, 0.000000)
Local magnetic moments:
   0 O  ( 0.000000,  0.000000,  0.000625)
   1 O  ( 0.000000,  0.000000, -0.000669)
   2 O  ( 0.000000,  0.000000, -0.000727)
   3 O  ( 0.000000,  0.000000,  0.000669)
   4 O  ( 0.000000,  0.000000, -0.000731)
   5 O  ( 0.000000,  0.000000,  0.000673)
   6 O  ( 0.000000,  0.000000,  0.000621)
   7 O  ( 0.000000,  0.000000, -0.000665)
   8 O  ( 0.000000,  0.000000,  0.022322)
   9 O  ( 0.000000,  0.000000, -0.022597)
  10 O  ( 0.000000,  0.000000, -0.022422)
  11 O  ( 0.000000,  0.000000,  0.022409)
  12 Mn ( 0.000000,  0.000000,  4.575044)
  13 Mn ( 0.000000,  0.000000, -4.574145)
  14 Mn ( 0.000000,  0.000000, -4.575068)
  15 Mn ( 0.000000,  0.000000,  4.575033)
  16 P  ( 0.000000,  0.000000,  0.000784)
  17 P  ( 0.000000,  0.000000, -0.000823)
  18 P  ( 0.000000,  0.000000, -0.000943)
  19 P  ( 0.000000,  0.000000,  0.000825)
  20 O  ( 0.000000,  0.000000,  0.020701)
  21 O  ( 0.000000,  0.000000, -0.020583)
  22 O  ( 0.000000,  0.000000, -0.020675)
  23 O  ( 0.000000,  0.000000,  0.020703)
  24 Li ( 0.000000,  0.000000,  0.000000)
  25 Li ( 0.000000,  0.000000, -0.000026)
  26 Li ( 0.000000,  0.000000,  0.000000)
  27 Li ( 0.000000,  0.000000, -0.000026)

Energy contributions relative to reference atoms: (reference = -196157.275402)

Kinetic:       +296.223154
Potential:     -255.902137
External:        +0.000000
XC:            -267.511683
Entropy (-ST):   -0.000000
Local:           +1.781863
Free energy:   -225.408803
Extrapolated:  -225.408803

Spin contamination: 9.697111 electrons
Showing only first 2 kpts
                      Up                     Down
 Kpt  Band  Eigenvalues  Occupancy  Eigenvalues  Occupancy
  0    88      5.10667    0.00694      5.11486    0.00694
  0    89      5.16121    0.00694      5.18018    0.00694
  0    90      9.64620    0.00000      9.65196    0.00000
  0    91      9.68578    0.00000      9.66778    0.00000

  1    88      5.11819    0.00694      5.12662    0.00694
  1    89      5.17059    0.00694      5.19040    0.00694
  1    90      9.52679    0.00000      9.53314    0.00000
  1    91      9.56198    0.00000      9.54353    0.00000

Fermi level: 6.37319

Gap: 3.779 eV
Transition (v -> c):
  (s=1, k=72, n=89, [0.08, -0.42, -0.38]) -> (s=1, k=58, n=90, [-0.08, -0.08, 0.12])
Writing to born-0.01-9x-.gpw (mode='all')