User:   madkru@g035.nifl.fysik.dtu.dk
Date:   Mon Mar 22 13:52:12 2021
Arch:   x86_64
Pid:    44316
Python: 3.7.4
gpaw:   /home/niflheim/madkru/venv_folder/gpaw/gpaw (d0d1ca1c71)
_gpaw:  /home/niflheim/madkru/venv_folder/gpaw/build/lib.linux-x86_64-sandybridge-3.7/
        _gpaw.cpython-37m-x86_64-linux-gnu.so (4fd39e8b1e)
ase:    /home/niflheim/madkru/venv_folder/ase/ase (version 3.21.0b1-7e6c206a91)
numpy:  /home/niflheim/madkru/venv_folder/lib/python3.7/site-packages/numpy (version 1.19.4)
scipy:  /home/niflheim/madkru/venv_folder/lib/python3.7/site-packages/scipy (version 1.5.4)
units:  Angstrom and eV
cores: 32
OMP_NUM_THREADS: 1

Input parameters:
  convergence: {bands: occupied,
                density: 0.0001,
                eigenstates: 4e-08,
                energy: 0.0005,
                forces: 1e-06}
  kpts: [6 6 4]
  mode: {ecut: 600.0,
         gammacentered: False,
         name: pw}
  occupations: {fixmagmom: False,
                name: fermi-dirac,
                width: 0.001}
  setups: {Mn: :d,3.0}
  symmetry: {point_group: False,
             time_reversal: False}

System changes: positions, numbers, cell, pbc, initial_charges, initial_magmoms

Initialize ...

O-setup:
  name: Oxygen
  id: 9b9d51c344dea68c822856295a461509
  Z: 8.0
  valence: 6
  core: 2
  charge: 0.0
  file: /home/modules/software/GPAW-setups/0.9.20000/O.LDA.gz
  compensation charges: gauss, rc=0.21, lmax=2
  cutoffs: 1.17(filt), 0.83(core),
  valence states:
                energy  radius
    2s(2.00)   -23.752   0.688
    2p(4.00)    -9.195   0.598
    *s           3.459   0.688
    *p          18.016   0.598
    *d           0.000   0.619

  Using partial waves for O as LCAO basis

Mn-setup:
  name: Manganese
  id: 0d715a8018be061a6e9ea6f2d364ac92
  Z: 25.0
  valence: 15
  core: 10
  charge: 0.0
  Hubbard U: 3.000000 eV (l=2, scale=True)
  file: /home/modules/software/GPAW-setups/0.9.20000/Mn.LDA.gz
  compensation charges: gauss, rc=0.38, lmax=2
  cutoffs: 2.14(filt), 0.86(core),
  valence states:
                energy  radius
    3s(2.00)   -85.387   1.275
    4s(2.00)    -5.282   1.275
    3p(6.00)   -54.493   1.281
    4p(0.00)    -1.471   1.281
    3d(5.00)    -7.009   1.138
    *d          20.203   1.138

[...]

P-setup:
  name: Phosphorus
  id: a5561c299094968922a179ab894d2e2d
  Z: 15.0
  valence: 5
  core: 10
  charge: 0.0
  file: /home/modules/software/GPAW-setups/0.9.20000/P.LDA.gz
  compensation charges: gauss, rc=0.30, lmax=2
  cutoffs: 1.69(filt), 1.81(core),
  valence states:
                energy  radius
    3s(2.00)   -14.015   0.953
    3p(3.00)    -5.596   0.953
    *s          13.197   0.953
    *p          21.615   0.953
    *d           0.000   0.953

[...]

Li-setup:
  name: Lithium
  id: b73562207f97a71b6967473b66fe8b65
  Z: 3.0
  valence: 1
  core: 2
  charge: 0.0
  file: /home/modules/software/GPAW-setups/0.9.20000/Li.LDA.gz
  compensation charges: gauss, rc=0.33, lmax=2
  cutoffs: 1.91(filt), 2.55(core),
  valence states:
                energy  radius
    2s(1.00)    -2.874   1.058
    2p(0.00)    -1.126   1.058
    *s          24.338   1.058

  Using partial waves for Li as LCAO basis

Reference energy: -196157.275402

Spin-polarized calculation.
Magnetic moment: 0.000000

Convergence criteria:
  Maximum total energy change: 0.0005 eV / electron
  Maximum integral of absolute density change: 0.0001 electrons
  Maximum integral of absolute eigenstate change: 4e-08 eV^2
  Maximum change in atomic force: 1e-06 eV / Ang
  Maximum number of iterations: 333

Symmetries present (total): 1

  ( 1  0  0)
  ( 0  1  0)
  ( 0  0  1)

144 k-points: 6 x 6 x 4 Monkhorst-Pack grid
144 k-points in the irreducible part of the Brillouin zone
       k-points in crystal coordinates                weights
   0:    -0.41666667   -0.41666667   -0.37500000          1/144
   1:    -0.41666667   -0.41666667   -0.12500000          1/144
   2:    -0.41666667   -0.41666667    0.12500000          1/144
   3:    -0.41666667   -0.41666667    0.37500000          1/144
   4:    -0.41666667   -0.25000000   -0.37500000          1/144
   5:    -0.41666667   -0.25000000   -0.12500000          1/144
   6:    -0.41666667   -0.25000000    0.12500000          1/144
   7:    -0.41666667   -0.25000000    0.37500000          1/144
   8:    -0.41666667   -0.08333333   -0.37500000          1/144
   9:    -0.41666667   -0.08333333   -0.12500000          1/144
          ...
 143:     0.41666667    0.41666667    0.37500000          1/144

Wave functions: Plane wave expansion
  Cutoff energy: 600.000 eV
  Number of coefficients (min, max): 9238, 9284
  Pulay-stress correction: 0.000000 eV/Ang^3 (de/decut=0.000000)
  Using FFTW library
  ScaLapack parameters: grid=1x1, blocksize=None
  Wavefunction extrapolation:
    Improved wavefunction reuse through dual PAW basis

  Fermi-Dirac: width=0.0010 eV

Eigensolver
   Davidson(niter=2, smin=None, normalize=True)

Densities:
  Coarse grid: 60*35*27 grid
  Fine grid: 120*70*54 grid
  Total Charge: 0.000000

Density mixing:
  Method: difference
  Backend: pulay
  Linear mixing parameter: 0.05
  Mixing with 5 old densities
  Damping of long wave oscillations: 50

Hamiltonian:
  XC and Coulomb potentials evaluated on a 120*70*54 grid
  Using the LDA Exchange-Correlation functional

Total number of cores used: 32
Parallelization over k-points: 16
Domain decomposition: 2 x 1 x 1

Number of atoms: 28
Number of atomic orbitals: 148
Number of bands in calculation: 112
Number of valence electrons: 180
Bands to converge: occupied

... initialized

Initializing position-dependent things.

Density initialized from atomic densities
Creating initial wave functions:
  112 bands from LCAO basis set

               O     O  P  O
            PO           OMn     O
                  O          MO
            O        Li O
             Mn  On          OP
         O         Li O
         Li     O P         O
       Li

Positions:
   0 O     -1.263197   -2.497779   -1.098475    ( 0.0000,  0.0000,  0.0000)
   1 O     -3.070823    2.922496    1.209491    ( 0.0000,  0.0000,  0.0000)
   2 O      1.985541    0.474863    1.428016    ( 0.0000,  0.0000,  0.0000)
   3 O      3.793120   -0.050100   -0.879950    ( 0.0000,  0.0000,  0.0000)
   4 O      1.985518    2.922485    1.428149    ( 0.0000,  0.0000,  0.0000)
   5 O      3.793144   -2.497790   -0.879818    ( 0.0000,  0.0000,  0.0000)
   6 O     -1.263220   -0.050157   -1.098342    ( 0.0000,  0.0000,  0.0000)
   7 O     -3.060798    0.474805    1.209623    ( 0.0000,  0.0000,  0.0000)
   8 O     -4.167835   -1.273920   -0.862116    ( 0.0000,  0.0000,  0.0000)
   9 O     -0.166037    1.698602    1.445528    ( 0.0000,  0.0000,  0.0000)
  10 O      4.890156    1.698625    1.191790    ( 0.0000,  0.0000,  0.0000)
  11 O      0.888358   -1.273896   -1.115855    ( 0.0000,  0.0000,  0.0000)
  12 Mn    -2.445557   -1.274211    0.312921    ( 0.0000,  0.0000,  1.0000)
  13 Mn    -1.888303    1.698892   -1.994948    ( 0.0000,  0.0000, -1.0000)
  14 Mn     3.167879    1.698917    0.016752    ( 0.0000,  0.0000, -1.0000)
  15 Mn     2.610624   -1.274187    2.324621    ( 0.0000,  0.0000,  1.0000)
  16 P     -0.529549   -1.273917   -1.724376    ( 0.0000,  0.0000,  0.0000)
  17 P     -3.804359    1.698599    0.583463    ( 0.0000,  0.0000,  0.0000)
  18 P      1.251870    1.698623    2.054050    ( 0.0000,  0.0000,  0.0000)
  19 P      4.526680   -1.273894   -0.253789    ( 0.0000,  0.0000,  0.0000)
  20 O     -0.544227   -1.273926    1.365380    ( 0.0000,  0.0000,  0.0000)
  21 O     -3.789411    1.698610   -0.942222    ( 0.0000,  0.0000,  0.0000)
  22 O      1.266548    1.698631   -1.035707    ( 0.0000,  0.0000,  0.0000)
  23 O      4.511733   -1.273905    1.271895    ( 0.0000,  0.0000,  0.0000)
  24 Li    -4.695087   -2.760584   -2.142877    ( 0.0000,  0.0000,  0.0000)
  25 Li     0.361147   -2.760561    0.164836    ( 0.0000,  0.0000,  0.0000)
  26 Li    -4.695074    0.212330   -2.142877    ( 0.0000,  0.0000,  0.0000)
  27 Li     0.361161    0.212353    0.164837    ( 0.0000,  0.0000,  0.0000)

Unit cell:
           periodic     x           y           z      points  spacing
  1. axis:    yes   10.112485    0.000045   -0.000035    60     0.1685
  2. axis:    yes    0.000026    5.945827    0.000001    35     0.1699
  3. axis:    yes   -0.000016    0.000000    4.615463    27     0.1709

  Lengths:  10.112485   5.945827   4.615463
  Angles:   89.999989  90.000396  89.999490

Effective grid spacing dv^(1/3) = 0.1698

                     log10-error:           total        iterations:
           time      wfs    density  force  energy       poisson  magmom
iter:   1  13:55:26                       -221.372032             +0.0000
iter:   2  13:56:03  -0.61  -0.93         -234.815093             +0.0000
iter:   3  13:56:41  -0.37  -0.97         -225.905540             -0.0000
iter:   4  13:57:18  -1.39  -1.29         -225.761057             +0.0000
iter:   5  13:57:55  -1.27  -1.39         -227.318437             +0.0000
iter:   6  13:58:33  -1.47  -1.46         -225.736714             +0.0000
iter:   7  13:59:10  -2.48  -2.04         -225.723184             +0.0000
iter:   8  13:59:47  -2.13  -1.99         -225.600307             +0.0000
iter:   9  14:00:25  -2.44  -2.08         -225.431381             +0.0000
iter:  10  14:01:02  -3.32  -2.55         -225.421961             +0.0000
iter:  11  14:01:39  -3.68  -2.81         -225.411722             +0.0000
iter:  12  14:02:17  -4.12  -3.03         -225.410499             +0.0000
iter:  13  14:02:54  -5.08  -3.29         -225.410347             -0.0000
iter:  14  14:03:31  -5.39  -3.32         -225.410187             -0.0000
iter:  15  14:04:09  -6.08  -3.43         -225.410188             -0.0000
iter:  16  14:04:46  -5.38  -3.47         -225.410420             +0.0000
iter:  17  14:05:23  -5.77  -3.62         -225.410350             -0.0000
iter:  18  14:06:00  -5.59  -3.77         -225.410143             +0.0000
iter:  19  14:06:38  -6.08  -3.92         -225.410138             -0.0000
iter:  20  14:07:15  -6.79  -4.06         -225.410120             -0.0000
iter:  21  14:07:52  -7.07  -4.19         -225.410136             -0.0000
iter:  22  14:08:29  -7.15  -4.30         -225.410137             -0.0000
iter:  23  14:09:16  -7.88  -4.28         -225.410134             -0.0000
iter:  24  14:10:03  -7.71  -4.30    -2.48-225.410136             -0.0000
iter:  25  14:10:50  -7.45  -4.62    -2.76-225.410134             -0.0000
iter:  26  14:11:37  -8.04  -4.80    -3.16-225.410134             -0.0000
iter:  27  14:12:24  -8.68  -4.85    -3.05-225.410134             -0.0000
iter:  28  14:13:11  -8.40  -4.91    -2.69-225.410134             -0.0000
iter:  29  14:13:58  -9.05  -5.13    -3.25-225.410134             -0.0000
iter:  30  14:14:45  -8.64  -5.24    -3.29-225.410134             -0.0000
iter:  31  14:15:32  -9.38  -5.50    -3.37-225.410134             -0.0000
iter:  32  14:16:19  -9.76  -5.75    -3.63-225.410134             -0.0000
iter:  33  14:17:06 -10.88  -5.94    -4.43-225.410134             -0.0000
iter:  34  14:17:53  -9.80  -5.99    -4.00-225.410134             -0.0000
iter:  35  14:18:40 -10.41  -6.12    -4.09-225.410134             -0.0000
iter:  36  14:19:27 -10.91  -6.12    -4.49-225.410134             -0.0000
iter:  37  14:20:14 -10.35  -6.18    -4.37-225.410134             -0.0000
iter:  38  14:21:01 -10.51  -6.12    -3.98-225.410134             -0.0000
iter:  39  14:21:48 -11.19  -6.48    -4.63-225.410134             -0.0000
iter:  40  14:22:35 -11.88  -6.60    -4.38-225.410134             -0.0000
iter:  41  14:23:22 -11.58  -6.71    -4.53-225.410134             -0.0000
iter:  42  14:24:09 -12.97  -7.43    -5.21-225.410134             -0.0000
iter:  43  14:24:56 -13.03  -7.42    -5.67-225.410134             -0.0000
iter:  44  14:25:43 -13.21  -7.58    -5.48-225.410134             -0.0000
iter:  45  14:26:30 -14.18  -7.77    -5.96-225.410134             -0.0000
iter:  46  14:27:17 -14.20  -7.83    -6.06-225.410134             -0.0000

Converged after 46 iterations.

Dipole moment: (19.048036, -1.430492, -4.183664) |e|*Ang

Total magnetic moment: (0.000000, 0.000000, -0.000000)
Local magnetic moments:
   0 O  ( 0.000000,  0.000000,  0.000702)
   1 O  ( 0.000000,  0.000000, -0.000692)
   2 O  ( 0.000000,  0.000000, -0.000673)
   3 O  ( 0.000000,  0.000000,  0.000656)
   4 O  ( 0.000000,  0.000000, -0.000677)
   5 O  ( 0.000000,  0.000000,  0.000662)
   6 O  ( 0.000000,  0.000000,  0.000672)
   7 O  ( 0.000000,  0.000000, -0.000697)
   8 O  ( 0.000000,  0.000000,  0.022348)
   9 O  ( 0.000000,  0.000000, -0.022381)
  10 O  ( 0.000000,  0.000000, -0.022277)
  11 O  ( 0.000000,  0.000000,  0.022405)
  12 Mn ( 0.000000,  0.000000,  4.574547)
  13 Mn ( 0.000000,  0.000000, -4.574646)
  14 Mn ( 0.000000,  0.000000, -4.575063)
  15 Mn ( 0.000000,  0.000000,  4.575027)
  16 P  ( 0.000000,  0.000000,  0.000802)
  17 P  ( 0.000000,  0.000000, -0.000834)
  18 P  ( 0.000000,  0.000000, -0.000818)
  19 P  ( 0.000000,  0.000000,  0.000825)
  20 O  ( 0.000000,  0.000000,  0.020751)
  21 O  ( 0.000000,  0.000000, -0.020692)
  22 O  ( 0.000000,  0.000000, -0.020738)
  23 O  ( 0.000000,  0.000000,  0.020692)
  24 Li ( 0.000000,  0.000000,  0.000004)
  25 Li ( 0.000000,  0.000000, -0.000001)
  26 Li ( 0.000000,  0.000000, -0.000005)
  27 Li ( 0.000000,  0.000000,  0.000000)

Energy contributions relative to reference atoms: (reference = -196157.275402)

Kinetic:       +296.581993
Potential:     -256.187421
External:        +0.000000
XC:            -267.585737
Entropy (-ST):   -0.000000
Local:           +1.781031
Free energy:   -225.410134
Extrapolated:  -225.410134

Spin contamination: 9.696714 electrons
Showing only first 2 kpts
                      Up                     Down
 Kpt  Band  Eigenvalues  Occupancy  Eigenvalues  Occupancy
  0    88      5.11251    0.00694      5.10967    0.00694
  0    89      5.16547    0.00694      5.16278    0.00694
  0    90      9.64958    0.00000      9.65688    0.00000
  0    91      9.67803    0.00000      9.67178    0.00000

  1    88      5.12417    0.00694      5.12141    0.00694
  1    89      5.17476    0.00694      5.17199    0.00694
  1    90      9.53046    0.00000      9.53937    0.00000
  1    91      9.55673    0.00000      9.54572    0.00000

Fermi level: 6.37050

Gap: 3.792 eV
Transition (v -> c):
  (s=0, k=95, n=89, [0.08, 0.42, 0.38]) -> (s=1, k=81, n=90, [0.08, -0.08, -0.12])
Writing to born-0.01-7x+.gpw (mode='all')