User:   madkru@i018.nifl.fysik.dtu.dk
Date:   Wed Mar 24 22:55:25 2021
Arch:   x86_64
Pid:    26873
Python: 3.7.4
gpaw:   /home/niflheim/madkru/venv_folder/gpaw/gpaw (d224efde0f)
_gpaw:  /home/niflheim/madkru/venv_folder/gpaw/build/lib.linux-x86_64-ivybridge-3.7/
        _gpaw.cpython-37m-x86_64-linux-gnu.so (4fd39e8b1e)
ase:    /home/niflheim/madkru/venv_folder/ase/ase (version 3.21.0b1-4d5a73cb29)
numpy:  /home/niflheim/madkru/venv_folder/lib/python3.7/site-packages/numpy (version 1.19.4)
scipy:  /home/niflheim/madkru/venv_folder/lib/python3.7/site-packages/scipy (version 1.5.4)
units:  Angstrom and eV
cores: 64
OMP_NUM_THREADS: 1

Input parameters:
  convergence: {bands: occupied,
                density: 0.0001,
                eigenstates: 4e-08,
                energy: 0.0005,
                forces: 1e-06}
  kpts: [6 6 4]
  mode: {ecut: 600.0,
         gammacentered: False,
         name: pw}
  occupations: {fixmagmom: False,
                name: fermi-dirac,
                width: 0.001}
  setups: {Mn: :d,3.0}
  symmetry: {point_group: False,
             time_reversal: False}

System changes: positions, numbers, cell, pbc, initial_charges, initial_magmoms

Initialize ...

O-setup:
  name: Oxygen
  id: 9b9d51c344dea68c822856295a461509
  Z: 8.0
  valence: 6
  core: 2
  charge: 0.0
  file: /home/modules/software/GPAW-setups/0.9.20000/O.LDA.gz
  compensation charges: gauss, rc=0.21, lmax=2
  cutoffs: 1.17(filt), 0.83(core),
  valence states:
                energy  radius
    2s(2.00)   -23.752   0.688
    2p(4.00)    -9.195   0.598
    *s           3.459   0.688
    *p          18.016   0.598
    *d           0.000   0.619

  Using partial waves for O as LCAO basis

Mn-setup:
  name: Manganese
  id: 0d715a8018be061a6e9ea6f2d364ac92
  Z: 25.0
  valence: 15
  core: 10
  charge: 0.0
  Hubbard U: 3.000000 eV (l=2, scale=True)
  file: /home/modules/software/GPAW-setups/0.9.20000/Mn.LDA.gz
  compensation charges: gauss, rc=0.38, lmax=2
  cutoffs: 2.14(filt), 0.86(core),
  valence states:
                energy  radius
    3s(2.00)   -85.387   1.275
    4s(2.00)    -5.282   1.275
    3p(6.00)   -54.493   1.281
    4p(0.00)    -1.471   1.281
    3d(5.00)    -7.009   1.138
    *d          20.203   1.138

[...]

P-setup:
  name: Phosphorus
  id: a5561c299094968922a179ab894d2e2d
  Z: 15.0
  valence: 5
  core: 10
  charge: 0.0
  file: /home/modules/software/GPAW-setups/0.9.20000/P.LDA.gz
  compensation charges: gauss, rc=0.30, lmax=2
  cutoffs: 1.69(filt), 1.81(core),
  valence states:
                energy  radius
    3s(2.00)   -14.015   0.953
    3p(3.00)    -5.596   0.953
    *s          13.197   0.953
    *p          21.615   0.953
    *d           0.000   0.953

[...]

Li-setup:
  name: Lithium
  id: b73562207f97a71b6967473b66fe8b65
  Z: 3.0
  valence: 1
  core: 2
  charge: 0.0
  file: /home/modules/software/GPAW-setups/0.9.20000/Li.LDA.gz
  compensation charges: gauss, rc=0.33, lmax=2
  cutoffs: 1.91(filt), 2.55(core),
  valence states:
                energy  radius
    2s(1.00)    -2.874   1.058
    2p(0.00)    -1.126   1.058
    *s          24.338   1.058

  Using partial waves for Li as LCAO basis

Reference energy: -196157.275402

Spin-polarized calculation.
Magnetic moment: 0.000000

Convergence criteria:
  Maximum total energy change: 0.0005 eV / electron
  Maximum integral of absolute density change: 0.0001 electrons
  Maximum integral of absolute eigenstate change: 4e-08 eV^2
  Maximum change in atomic force: 1e-06 eV / Ang
  Maximum number of iterations: 333

Symmetries present (total): 1

  ( 1  0  0)
  ( 0  1  0)
  ( 0  0  1)

144 k-points: 6 x 6 x 4 Monkhorst-Pack grid
144 k-points in the irreducible part of the Brillouin zone
       k-points in crystal coordinates                weights
   0:    -0.41666667   -0.41666667   -0.37500000          1/144
   1:    -0.41666667   -0.41666667   -0.12500000          1/144
   2:    -0.41666667   -0.41666667    0.12500000          1/144
   3:    -0.41666667   -0.41666667    0.37500000          1/144
   4:    -0.41666667   -0.25000000   -0.37500000          1/144
   5:    -0.41666667   -0.25000000   -0.12500000          1/144
   6:    -0.41666667   -0.25000000    0.12500000          1/144
   7:    -0.41666667   -0.25000000    0.37500000          1/144
   8:    -0.41666667   -0.08333333   -0.37500000          1/144
   9:    -0.41666667   -0.08333333   -0.12500000          1/144
          ...
 143:     0.41666667    0.41666667    0.37500000          1/144

Wave functions: Plane wave expansion
  Cutoff energy: 600.000 eV
  Number of coefficients (min, max): 9238, 9284
  Pulay-stress correction: 0.000000 eV/Ang^3 (de/decut=0.000000)
  Using FFTW library
  ScaLapack parameters: grid=1x1, blocksize=None
  Wavefunction extrapolation:
    Improved wavefunction reuse through dual PAW basis

  Fermi-Dirac: width=0.0010 eV

Eigensolver
   Davidson(niter=2, smin=None, normalize=True)

Densities:
  Coarse grid: 60*35*27 grid
  Fine grid: 120*70*54 grid
  Total Charge: 0.000000

Density mixing:
  Method: difference
  Backend: pulay
  Linear mixing parameter: 0.05
  Mixing with 5 old densities
  Damping of long wave oscillations: 50

Hamiltonian:
  XC and Coulomb potentials evaluated on a 120*70*54 grid
  Using the LDA Exchange-Correlation functional

Total number of cores used: 64
Parallelization over k-points: 16
Domain decomposition: 2 x 2 x 1

Number of atoms: 28
Number of atomic orbitals: 148
Number of bands in calculation: 112
Number of valence electrons: 180
Bands to converge: occupied

... initialized

Initializing position-dependent things.

Density initialized from atomic densities
Creating initial wave functions:
  112 bands from LCAO basis set

               O     O  P  O
            PO           OMn     O
                  O          MO
            O        Li O
             Mn  On          OP
         O         Li O
         Li     O P         O
       Li

Positions:
   0 O     -1.263197   -2.497779   -1.098475    ( 0.0000,  0.0000,  0.0000)
   1 O     -3.070823    2.922496    1.209491    ( 0.0000,  0.0000,  0.0000)
   2 O      1.985541    0.474863    1.428016    ( 0.0000,  0.0000,  0.0000)
   3 O      3.793120   -0.050100   -0.879950    ( 0.0000,  0.0000,  0.0000)
   4 O      1.985518    2.922485    1.428149    ( 0.0000,  0.0000,  0.0000)
   5 O      3.793144   -2.497790   -0.879818    ( 0.0000,  0.0000,  0.0000)
   6 O     -1.263220   -0.050157   -1.098342    ( 0.0000,  0.0000,  0.0000)
   7 O     -3.070798    0.474805    1.209623    ( 0.0000,  0.0000,  0.0000)
   8 O     -4.167835   -1.273920   -0.862116    ( 0.0000,  0.0000,  0.0000)
   9 O     -0.166037    1.698602    1.445528    ( 0.0000,  0.0000,  0.0000)
  10 O      4.890156    1.698625    1.191790    ( 0.0000,  0.0000,  0.0000)
  11 O      0.888358   -1.273896   -1.115855    ( 0.0000,  0.0000,  0.0000)
  12 Mn    -2.445557   -1.274211    0.312921    ( 0.0000,  0.0000,  1.0000)
  13 Mn    -1.888303    1.698892   -1.994948    ( 0.0000,  0.0000, -1.0000)
  14 Mn     3.167879    1.698917    0.016752    ( 0.0000,  0.0000, -1.0000)
  15 Mn     2.610624   -1.274187    2.324621    ( 0.0000,  0.0000,  1.0000)
  16 P     -0.529549   -1.273917   -1.724376    ( 0.0000,  0.0000,  0.0000)
  17 P     -3.804359    1.698599    0.583463    ( 0.0000,  0.0000,  0.0000)
  18 P      1.251870    1.698623    2.054050    ( 0.0000,  0.0000,  0.0000)
  19 P      4.526680   -1.273894   -0.253789    ( 0.0000,  0.0000,  0.0000)
  20 O     -0.544227   -1.273926    1.365380    ( 0.0000,  0.0000,  0.0000)
  21 O     -3.789411    1.698610   -0.942222    ( 0.0000,  0.0000,  0.0000)
  22 O      1.266548    1.698631   -1.035707    ( 0.0000,  0.0000,  0.0000)
  23 O      4.521733   -1.273905    1.271895    ( 0.0000,  0.0000,  0.0000)
  24 Li    -4.695087   -2.760584   -2.142877    ( 0.0000,  0.0000,  0.0000)
  25 Li     0.361147   -2.760561    0.164836    ( 0.0000,  0.0000,  0.0000)
  26 Li    -4.695074    0.212330   -2.142877    ( 0.0000,  0.0000,  0.0000)
  27 Li     0.361161    0.212353    0.164837    ( 0.0000,  0.0000,  0.0000)

Unit cell:
           periodic     x           y           z      points  spacing
  1. axis:    yes   10.112485    0.000045   -0.000035    60     0.1685
  2. axis:    yes    0.000026    5.945827    0.000001    35     0.1699
  3. axis:    yes   -0.000016    0.000000    4.615463    27     0.1709

  Lengths:  10.112485   5.945827   4.615463
  Angles:   89.999989  90.000396  89.999490

Effective grid spacing dv^(1/3) = 0.1698

                     log10-error:           total        iterations:
           time      wfs    density  force  energy       poisson  magmom
iter:   1  22:56:58                       -221.379634             +0.0000
iter:   2  22:57:18  -0.61  -0.93         -234.850026             +0.0000
iter:   3  22:57:38  -0.37  -0.97         -225.915841             -0.0000
iter:   4  22:57:58  -1.39  -1.29         -225.761551             +0.0000
iter:   5  22:58:18  -1.26  -1.39         -227.339082             +0.0000
iter:   6  22:58:37  -1.46  -1.46         -225.737287             +0.0000
iter:   7  22:58:57  -2.47  -2.04         -225.725432             +0.0000
iter:   8  22:59:17  -2.15  -1.99         -225.585688             +0.0000
iter:   9  22:59:37  -2.47  -2.10         -225.432541             +0.0000
iter:  10  22:59:57  -3.30  -2.54         -225.422124             +0.0000
iter:  11  23:00:16  -3.64  -2.81         -225.411805             +0.0000
iter:  12  23:00:36  -4.15  -3.06         -225.410787             +0.0000
iter:  13  23:00:56  -5.15  -3.29         -225.410692             -0.0000
iter:  14  23:01:16  -5.38  -3.32         -225.410512             +0.0000
iter:  15  23:01:36  -6.02  -3.43         -225.410519             +0.0000
iter:  16  23:01:55  -5.26  -3.47         -225.410827             -0.0000
iter:  17  23:02:15  -5.79  -3.58         -225.410734             +0.0000
iter:  18  23:02:35  -5.29  -3.72         -225.410472             -0.0000
iter:  19  23:02:55  -6.05  -4.07         -225.410466             -0.0000
iter:  20  23:03:15  -7.30  -4.53         -225.410468             +0.0000
iter:  21  23:03:40  -7.84  -4.58         -225.410467             -0.0000
iter:  22  23:03:59  -6.91  -4.62         -225.410469             -0.0000
iter:  23  23:04:24  -7.77  -4.61    -2.28-225.410467             -0.0000
iter:  24  23:04:48  -7.71  -4.91    -3.12-225.410466             +0.0000
iter:  25  23:05:13  -8.54  -4.98    -3.06-225.410466             -0.0000
iter:  26  23:05:38  -9.24  -5.17    -3.04-225.410466             -0.0000
iter:  27  23:06:02  -9.87  -5.23    -3.83-225.410466             -0.0000
iter:  28  23:06:26  -8.26  -5.26    -2.88-225.410466             -0.0000
iter:  29  23:06:51  -9.54  -5.48    -3.51-225.410466             -0.0000
iter:  30  23:07:15 -10.05  -5.62    -4.30-225.410466             -0.0000
iter:  31  23:07:40  -9.96  -5.66    -3.56-225.410466             -0.0000
iter:  32  23:08:04  -9.97  -5.74    -3.78-225.410466             -0.0000
iter:  33  23:08:29 -10.65  -5.84    -4.02-225.410466             -0.0000
iter:  34  23:08:54 -10.06  -5.90    -3.73-225.410466             -0.0000
iter:  35  23:09:18 -10.14  -6.11    -3.93-225.410466             -0.0000
iter:  36  23:09:43 -11.58  -6.36    -4.62-225.410466             -0.0000
iter:  37  23:10:07 -10.47  -6.40    -4.07-225.410466             -0.0000
iter:  38  23:10:31 -11.73  -6.51    -4.87-225.410466             -0.0000
iter:  39  23:10:56 -12.06  -6.55    -4.64-225.410466             -0.0000
iter:  40  23:11:20 -11.12  -6.62    -4.39-225.410466             -0.0000
iter:  41  23:11:45 -11.42  -6.68    -4.94-225.410466             -0.0000
iter:  42  23:12:09 -13.05  -6.77    -5.39-225.410466             -0.0000
iter:  43  23:12:34 -12.09  -6.81    -4.50-225.410466             -0.0000
iter:  44  23:12:58 -12.03  -7.10    -5.18-225.410466             -0.0000
iter:  45  23:13:23 -12.08  -7.39    -4.98-225.410466             -0.0000
iter:  46  23:13:47 -13.10  -7.42    -5.15-225.410466             -0.0000
iter:  47  23:14:12 -13.48  -7.69    -5.88-225.410466             -0.0000
iter:  48  23:14:36 -13.85  -7.73    -5.92-225.410466             -0.0000
iter:  49  23:15:01 -14.55  -7.87    -6.00-225.410466             -0.0000

Converged after 49 iterations.

Dipole moment: (19.048401, -1.428283, -4.182260) |e|*Ang

Total magnetic moment: (0.000000, 0.000000, -0.000000)
Local magnetic moments:
   0 O  ( 0.000000,  0.000000,  0.000654)
   1 O  ( 0.000000,  0.000000, -0.000712)
   2 O  ( 0.000000,  0.000000, -0.000716)
   3 O  ( 0.000000,  0.000000,  0.000667)
   4 O  ( 0.000000,  0.000000, -0.000720)
   5 O  ( 0.000000,  0.000000,  0.000671)
   6 O  ( 0.000000,  0.000000,  0.000650)
   7 O  ( 0.000000,  0.000000, -0.000708)
   8 O  ( 0.000000,  0.000000,  0.022331)
   9 O  ( 0.000000,  0.000000, -0.022343)
  10 O  ( 0.000000,  0.000000, -0.022416)
  11 O  ( 0.000000,  0.000000,  0.022485)
  12 Mn ( 0.000000,  0.000000,  4.575125)
  13 Mn ( 0.000000,  0.000000, -4.575044)
  14 Mn ( 0.000000,  0.000000, -4.575067)
  15 Mn ( 0.000000,  0.000000,  4.575396)
  16 P  ( 0.000000,  0.000000,  0.000807)
  17 P  ( 0.000000,  0.000000, -0.000813)
  18 P  ( 0.000000,  0.000000, -0.000840)
  19 P  ( 0.000000,  0.000000,  0.000638)
  20 O  ( 0.000000,  0.000000,  0.020687)
  21 O  ( 0.000000,  0.000000, -0.020714)
  22 O  ( 0.000000,  0.000000, -0.020704)
  23 O  ( 0.000000,  0.000000,  0.020670)
  24 Li ( 0.000000,  0.000000, -0.000002)
  25 Li ( 0.000000,  0.000000, -0.000000)
  26 Li ( 0.000000,  0.000000, -0.000002)
  27 Li ( 0.000000,  0.000000, -0.000000)

Energy contributions relative to reference atoms: (reference = -196157.275402)

Kinetic:       +296.743123
Potential:     -256.302400
External:        +0.000000
XC:            -267.632407
Entropy (-ST):   -0.000000
Local:           +1.781218
Free energy:   -225.410466
Extrapolated:  -225.410466

Spin contamination: 9.697356 electrons
Showing only first 2 kpts
                      Up                     Down
 Kpt  Band  Eigenvalues  Occupancy  Eigenvalues  Occupancy
  0    88      5.10032    0.00694      5.10822    0.00694
  0    89      5.15761    0.00694      5.16003    0.00694
  0    90      9.64907    0.00000      9.64714    0.00000
  0    91      9.67243    0.00000      9.66449    0.00000

  1    88      5.11030    0.00694      5.11991    0.00694
  1    89      5.16705    0.00694      5.16938    0.00694
  1    90      9.53051    0.00000      9.52826    0.00000
  1    91      9.54701    0.00000      9.54171    0.00000

Fermi level: 6.36951

Gap: 3.794 eV
Transition (v -> c):
  (s=1, k=72, n=89, [0.08, -0.42, -0.38]) -> (s=1, k=85, n=90, [0.08, 0.08, -0.12])
Writing to born-0.01-23x+.gpw (mode='all')