User:   madkru@i018.nifl.fysik.dtu.dk
Date:   Wed Mar 24 15:40:34 2021
Arch:   x86_64
Pid:    26873
Python: 3.7.4
gpaw:   /home/niflheim/madkru/venv_folder/gpaw/gpaw (d224efde0f)
_gpaw:  /home/niflheim/madkru/venv_folder/gpaw/build/lib.linux-x86_64-ivybridge-3.7/
        _gpaw.cpython-37m-x86_64-linux-gnu.so (4fd39e8b1e)
ase:    /home/niflheim/madkru/venv_folder/ase/ase (version 3.21.0b1-4d5a73cb29)
numpy:  /home/niflheim/madkru/venv_folder/lib/python3.7/site-packages/numpy (version 1.19.4)
scipy:  /home/niflheim/madkru/venv_folder/lib/python3.7/site-packages/scipy (version 1.5.4)
units:  Angstrom and eV
cores: 64
OMP_NUM_THREADS: 1

Input parameters:
  convergence: {bands: occupied,
                density: 0.0001,
                eigenstates: 4e-08,
                energy: 0.0005,
                forces: 1e-06}
  kpts: [6 6 4]
  mode: {ecut: 600.0,
         gammacentered: False,
         name: pw}
  occupations: {fixmagmom: False,
                name: fermi-dirac,
                width: 0.001}
  setups: {Mn: :d,3.0}
  symmetry: {point_group: False,
             time_reversal: False}

System changes: positions, numbers, cell, pbc, initial_charges, initial_magmoms

Initialize ...

O-setup:
  name: Oxygen
  id: 9b9d51c344dea68c822856295a461509
  Z: 8.0
  valence: 6
  core: 2
  charge: 0.0
  file: /home/modules/software/GPAW-setups/0.9.20000/O.LDA.gz
  compensation charges: gauss, rc=0.21, lmax=2
  cutoffs: 1.17(filt), 0.83(core),
  valence states:
                energy  radius
    2s(2.00)   -23.752   0.688
    2p(4.00)    -9.195   0.598
    *s           3.459   0.688
    *p          18.016   0.598
    *d           0.000   0.619

  Using partial waves for O as LCAO basis

Mn-setup:
  name: Manganese
  id: 0d715a8018be061a6e9ea6f2d364ac92
  Z: 25.0
  valence: 15
  core: 10
  charge: 0.0
  Hubbard U: 3.000000 eV (l=2, scale=True)
  file: /home/modules/software/GPAW-setups/0.9.20000/Mn.LDA.gz
  compensation charges: gauss, rc=0.38, lmax=2
  cutoffs: 2.14(filt), 0.86(core),
  valence states:
                energy  radius
    3s(2.00)   -85.387   1.275
    4s(2.00)    -5.282   1.275
    3p(6.00)   -54.493   1.281
    4p(0.00)    -1.471   1.281
    3d(5.00)    -7.009   1.138
    *d          20.203   1.138

[...]

P-setup:
  name: Phosphorus
  id: a5561c299094968922a179ab894d2e2d
  Z: 15.0
  valence: 5
  core: 10
  charge: 0.0
  file: /home/modules/software/GPAW-setups/0.9.20000/P.LDA.gz
  compensation charges: gauss, rc=0.30, lmax=2
  cutoffs: 1.69(filt), 1.81(core),
  valence states:
                energy  radius
    3s(2.00)   -14.015   0.953
    3p(3.00)    -5.596   0.953
    *s          13.197   0.953
    *p          21.615   0.953
    *d           0.000   0.953

[...]

Li-setup:
  name: Lithium
  id: b73562207f97a71b6967473b66fe8b65
  Z: 3.0
  valence: 1
  core: 2
  charge: 0.0
  file: /home/modules/software/GPAW-setups/0.9.20000/Li.LDA.gz
  compensation charges: gauss, rc=0.33, lmax=2
  cutoffs: 1.91(filt), 2.55(core),
  valence states:
                energy  radius
    2s(1.00)    -2.874   1.058
    2p(0.00)    -1.126   1.058
    *s          24.338   1.058

  Using partial waves for Li as LCAO basis

Reference energy: -196157.275402

Spin-polarized calculation.
Magnetic moment: 0.000000

Convergence criteria:
  Maximum total energy change: 0.0005 eV / electron
  Maximum integral of absolute density change: 0.0001 electrons
  Maximum integral of absolute eigenstate change: 4e-08 eV^2
  Maximum change in atomic force: 1e-06 eV / Ang
  Maximum number of iterations: 333

Symmetries present (total): 1

  ( 1  0  0)
  ( 0  1  0)
  ( 0  0  1)

144 k-points: 6 x 6 x 4 Monkhorst-Pack grid
144 k-points in the irreducible part of the Brillouin zone
       k-points in crystal coordinates                weights
   0:    -0.41666667   -0.41666667   -0.37500000          1/144
   1:    -0.41666667   -0.41666667   -0.12500000          1/144
   2:    -0.41666667   -0.41666667    0.12500000          1/144
   3:    -0.41666667   -0.41666667    0.37500000          1/144
   4:    -0.41666667   -0.25000000   -0.37500000          1/144
   5:    -0.41666667   -0.25000000   -0.12500000          1/144
   6:    -0.41666667   -0.25000000    0.12500000          1/144
   7:    -0.41666667   -0.25000000    0.37500000          1/144
   8:    -0.41666667   -0.08333333   -0.37500000          1/144
   9:    -0.41666667   -0.08333333   -0.12500000          1/144
          ...
 143:     0.41666667    0.41666667    0.37500000          1/144

Wave functions: Plane wave expansion
  Cutoff energy: 600.000 eV
  Number of coefficients (min, max): 9238, 9284
  Pulay-stress correction: 0.000000 eV/Ang^3 (de/decut=0.000000)
  Using FFTW library
  ScaLapack parameters: grid=1x1, blocksize=None
  Wavefunction extrapolation:
    Improved wavefunction reuse through dual PAW basis

  Fermi-Dirac: width=0.0010 eV

Eigensolver
   Davidson(niter=2, smin=None, normalize=True)

Densities:
  Coarse grid: 60*35*27 grid
  Fine grid: 120*70*54 grid
  Total Charge: 0.000000

Density mixing:
  Method: difference
  Backend: pulay
  Linear mixing parameter: 0.05
  Mixing with 5 old densities
  Damping of long wave oscillations: 50

Hamiltonian:
  XC and Coulomb potentials evaluated on a 120*70*54 grid
  Using the LDA Exchange-Correlation functional

Total number of cores used: 64
Parallelization over k-points: 16
Domain decomposition: 2 x 2 x 1

Number of atoms: 28
Number of atomic orbitals: 148
Number of bands in calculation: 112
Number of valence electrons: 180
Bands to converge: occupied

... initialized

Initializing position-dependent things.

Density initialized from atomic densities
Creating initial wave functions:
  112 bands from LCAO basis set

               O     O  P  O
            PO           OMn     O
                  O          MO
            O        Li O
             Mn  On          OP
         O         Li O
         Li     O P         O
       Li

Positions:
   0 O     -1.263197   -2.497779   -1.098475    ( 0.0000,  0.0000,  0.0000)
   1 O     -3.070823    2.922496    1.209491    ( 0.0000,  0.0000,  0.0000)
   2 O      1.985541    0.474863    1.428016    ( 0.0000,  0.0000,  0.0000)
   3 O      3.793120   -0.050100   -0.879950    ( 0.0000,  0.0000,  0.0000)
   4 O      1.985518    2.922485    1.428149    ( 0.0000,  0.0000,  0.0000)
   5 O      3.793144   -2.497790   -0.879818    ( 0.0000,  0.0000,  0.0000)
   6 O     -1.263220   -0.050157   -1.098342    ( 0.0000,  0.0000,  0.0000)
   7 O     -3.070798    0.474805    1.209623    ( 0.0000,  0.0000,  0.0000)
   8 O     -4.167835   -1.273920   -0.862116    ( 0.0000,  0.0000,  0.0000)
   9 O     -0.166037    1.698602    1.445528    ( 0.0000,  0.0000,  0.0000)
  10 O      4.890156    1.698625    1.191790    ( 0.0000,  0.0000,  0.0000)
  11 O      0.888358   -1.273896   -1.115855    ( 0.0000,  0.0000,  0.0000)
  12 Mn    -2.445557   -1.274211    0.312921    ( 0.0000,  0.0000,  1.0000)
  13 Mn    -1.888303    1.698892   -1.994948    ( 0.0000,  0.0000, -1.0000)
  14 Mn     3.167879    1.698917    0.016752    ( 0.0000,  0.0000, -1.0000)
  15 Mn     2.610624   -1.274187    2.324621    ( 0.0000,  0.0000,  1.0000)
  16 P     -0.529549   -1.273917   -1.724376    ( 0.0000,  0.0000,  0.0000)
  17 P     -3.804359    1.698599    0.583463    ( 0.0000,  0.0000,  0.0000)
  18 P      1.251870    1.698623    2.054050    ( 0.0000,  0.0000,  0.0000)
  19 P      4.526680   -1.273894   -0.253789    ( 0.0000,  0.0000,  0.0000)
  20 O     -0.544227   -1.273926    1.355380    ( 0.0000,  0.0000,  0.0000)
  21 O     -3.789411    1.698610   -0.942222    ( 0.0000,  0.0000,  0.0000)
  22 O      1.266548    1.698631   -1.035707    ( 0.0000,  0.0000,  0.0000)
  23 O      4.511733   -1.273905    1.271895    ( 0.0000,  0.0000,  0.0000)
  24 Li    -4.695087   -2.760584   -2.142877    ( 0.0000,  0.0000,  0.0000)
  25 Li     0.361147   -2.760561    0.164836    ( 0.0000,  0.0000,  0.0000)
  26 Li    -4.695074    0.212330   -2.142877    ( 0.0000,  0.0000,  0.0000)
  27 Li     0.361161    0.212353    0.164837    ( 0.0000,  0.0000,  0.0000)

Unit cell:
           periodic     x           y           z      points  spacing
  1. axis:    yes   10.112485    0.000045   -0.000035    60     0.1685
  2. axis:    yes    0.000026    5.945827    0.000001    35     0.1699
  3. axis:    yes   -0.000016    0.000000    4.615463    27     0.1709

  Lengths:  10.112485   5.945827   4.615463
  Angles:   89.999989  90.000396  89.999490

Effective grid spacing dv^(1/3) = 0.1698

                     log10-error:           total        iterations:
           time      wfs    density  force  energy       poisson  magmom
iter:   1  15:42:11                       -221.380302             +0.0000
iter:   2  15:42:31  -0.61  -0.93         -234.826707             +0.0000
iter:   3  15:42:51  -0.37  -0.97         -225.906038             -0.0000
iter:   4  15:43:11  -1.39  -1.29         -225.759987             +0.0000
iter:   5  15:43:31  -1.27  -1.39         -227.319981             +0.0000
iter:   6  15:43:51  -1.47  -1.46         -225.735621             +0.0000
iter:   7  15:44:10  -2.46  -2.04         -225.720929             +0.0000
iter:   8  15:44:30  -2.04  -1.99         -225.630564             +0.0000
iter:   9  15:44:50  -2.41  -2.03         -225.427147             +0.0000
iter:  10  15:45:10  -3.29  -2.58         -225.418265             +0.0000
iter:  11  15:45:30  -3.78  -2.86         -225.410550             +0.0000
iter:  12  15:45:50  -4.19  -3.01         -225.408994             +0.0000
iter:  13  15:46:09  -5.04  -3.28         -225.408815             +0.0000
iter:  14  15:46:29  -4.99  -3.33         -225.408810             +0.0000
iter:  15  15:46:49  -5.99  -3.42         -225.408668             +0.0000
iter:  16  15:47:09  -4.80  -3.47         -225.408817             -0.0000
iter:  17  15:47:29  -6.07  -3.49         -225.408910             -0.0000
iter:  18  15:47:49  -5.02  -3.44         -225.408698             -0.0000
iter:  19  15:48:08  -6.42  -3.74         -225.408670             +0.0000
iter:  20  15:48:28  -7.19  -3.78         -225.408658             +0.0000
iter:  21  15:48:48  -6.57  -3.84         -225.408627             +0.0000
iter:  22  15:49:08  -7.44  -3.98         -225.408620             +0.0000
iter:  23  15:49:28  -6.74  -4.03         -225.408610             +0.0000
iter:  24  15:49:48  -7.19  -4.60         -225.408606             +0.0000
iter:  25  15:50:12  -7.44  -4.76         -225.408604             +0.0000
iter:  26  15:50:37  -7.74  -5.01    -2.89-225.408603             +0.0000
iter:  27  15:51:01  -8.54  -5.15    -3.22-225.408603             +0.0000
iter:  28  15:51:26  -9.02  -5.18    -3.70-225.408603             +0.0000
iter:  29  15:51:50  -9.32  -5.24    -3.27-225.408603             +0.0000
iter:  30  15:52:15  -9.74  -5.33    -3.75-225.408603             +0.0000
iter:  31  15:52:39  -9.30  -5.38    -3.22-225.408603             +0.0000
iter:  32  15:53:04 -10.11  -5.58    -3.65-225.408603             +0.0000
iter:  33  15:53:28  -9.36  -5.67    -3.60-225.408603             +0.0000
iter:  34  15:53:53  -9.98  -5.80    -4.00-225.408603             +0.0000
iter:  35  15:54:17 -10.20  -5.88    -3.68-225.408603             -0.0000
iter:  36  15:54:42 -10.68  -5.97    -4.38-225.408603             -0.0000
iter:  37  15:55:06 -10.85  -5.98    -3.96-225.408603             +0.0000
iter:  38  15:55:31 -11.47  -6.11    -4.38-225.408603             +0.0000
iter:  39  15:55:55 -10.29  -6.13    -3.90-225.408603             +0.0000
iter:  40  15:56:20 -10.97  -6.25    -4.16-225.408603             +0.0000
iter:  41  15:56:44 -12.11  -6.28    -4.81-225.408603             +0.0000
iter:  42  15:57:09 -11.22  -6.31    -4.37-225.408603             +0.0000
iter:  43  15:57:33 -11.64  -6.40    -4.98-225.408603             +0.0000
iter:  44  15:57:58 -12.05  -6.46    -4.66-225.408603             +0.0000
iter:  45  15:58:22 -11.92  -6.53    -4.73-225.408603             +0.0000
iter:  46  15:58:47 -11.05  -6.58    -4.16-225.408603             +0.0000
iter:  47  15:59:12 -12.04  -7.13    -5.14-225.408603             +0.0000
iter:  48  15:59:36 -11.89  -7.19    -4.81-225.408603             +0.0000
iter:  49  16:00:01 -12.82  -7.12    -4.86-225.408603             +0.0000
iter:  50  16:00:25 -13.23  -7.37    -5.33-225.408603             +0.0000
iter:  51  16:00:50 -12.84  -7.48    -5.38-225.408603             +0.0000
iter:  52  16:01:14 -13.64  -7.59    -5.31-225.408603             +0.0000
iter:  53  16:01:39 -14.15  -7.87    -5.70-225.408603             +0.0000
iter:  54  16:02:03 -14.27  -8.08    -5.78-225.408603             +0.0000
iter:  55  16:02:28 -13.76  -8.16    -6.09-225.408603             +0.0000

Converged after 55 iterations.

Dipole moment: (19.064500, -1.427730, -4.174769) |e|*Ang

Total magnetic moment: (0.000000, 0.000000, 0.000000)
Local magnetic moments:
   0 O  ( 0.000000,  0.000000,  0.000611)
   1 O  ( 0.000000,  0.000000, -0.000652)
   2 O  ( 0.000000,  0.000000, -0.000651)
   3 O  ( 0.000000,  0.000000,  0.000670)
   4 O  ( 0.000000,  0.000000, -0.000655)
   5 O  ( 0.000000,  0.000000,  0.000674)
   6 O  ( 0.000000,  0.000000,  0.000606)
   7 O  ( 0.000000,  0.000000, -0.000648)
   8 O  ( 0.000000,  0.000000,  0.022277)
   9 O  ( 0.000000,  0.000000, -0.022365)
  10 O  ( 0.000000,  0.000000, -0.022367)
  11 O  ( 0.000000,  0.000000,  0.022394)
  12 Mn ( 0.000000,  0.000000,  4.574712)
  13 Mn ( 0.000000,  0.000000, -4.575063)
  14 Mn ( 0.000000,  0.000000, -4.575054)
  15 Mn ( 0.000000,  0.000000,  4.575060)
  16 P  ( 0.000000,  0.000000,  0.000879)
  17 P  ( 0.000000,  0.000000, -0.000794)
  18 P  ( 0.000000,  0.000000, -0.000813)
  19 P  ( 0.000000,  0.000000,  0.000817)
  20 O  ( 0.000000,  0.000000,  0.020847)
  21 O  ( 0.000000,  0.000000, -0.020713)
  22 O  ( 0.000000,  0.000000, -0.020707)
  23 O  ( 0.000000,  0.000000,  0.020717)
  24 Li ( 0.000000,  0.000000,  0.000000)
  25 Li ( 0.000000,  0.000000,  0.000012)
  26 Li ( 0.000000,  0.000000,  0.000000)
  27 Li ( 0.000000,  0.000000,  0.000012)

Energy contributions relative to reference atoms: (reference = -196157.275402)

Kinetic:       +296.126186
Potential:     -255.817805
External:        +0.000000
XC:            -267.499687
Entropy (-ST):   -0.000000
Local:           +1.782703
Free energy:   -225.408603
Extrapolated:  -225.408603

Spin contamination: 9.697307 electrons
Showing only first 2 kpts
                      Up                     Down
 Kpt  Band  Eigenvalues  Occupancy  Eigenvalues  Occupancy
  0    88      5.11556    0.00694      5.10883    0.00694
  0    89      5.16944    0.00694      5.16067    0.00694
  0    90      9.65206    0.00000      9.65425    0.00000
  0    91      9.66939    0.00000      9.67107    0.00000

  1    88      5.12700    0.00694      5.12041    0.00694
  1    89      5.17903    0.00694      5.16990    0.00694
  1    90      9.53469    0.00000      9.53624    0.00000
  1    91      9.54295    0.00000      9.54485    0.00000

Fermi level: 6.37183

Gap: 3.784 eV
Transition (v -> c):
  (s=0, k=71, n=89, [-0.08, 0.42, 0.38]) -> (s=0, k=85, n=90, [0.08, 0.08, -0.12])
Writing to born-0.01-20z-.gpw (mode='all')