User:   madkru@g001.nifl.fysik.dtu.dk
Date:   Sat Mar 20 08:08:22 2021
Arch:   x86_64
Pid:    2442
Python: 3.7.4
gpaw:   /home/niflheim/madkru/venv_folder/gpaw/gpaw (d0d1ca1c71)
_gpaw:  /home/niflheim/madkru/venv_folder/gpaw/build/lib.linux-x86_64-sandybridge-3.7/
        _gpaw.cpython-37m-x86_64-linux-gnu.so (4fd39e8b1e)
ase:    /home/niflheim/madkru/venv_folder/ase/ase (version 3.21.0b1-7e6c206a91)
numpy:  /home/niflheim/madkru/venv_folder/lib/python3.7/site-packages/numpy (version 1.19.4)
scipy:  /home/niflheim/madkru/venv_folder/lib/python3.7/site-packages/scipy (version 1.5.4)
units:  Angstrom and eV
cores: 32
OMP_NUM_THREADS: 1

Input parameters:
  convergence: {forces: 1e-06}
  kpts: [6 6 4]
  mode: {ecut: 600.0,
         gammacentered: False,
         name: pw}
  occupations: {fixmagmom: False,
                name: fermi-dirac,
                width: 0.001}
  setups: {Mn: :d,3.0}
  symmetry: {point_group: False}

System changes: positions, numbers, cell, pbc, initial_charges, initial_magmoms

Initialize ...

O-setup:
  name: Oxygen
  id: 9b9d51c344dea68c822856295a461509
  Z: 8.0
  valence: 6
  core: 2
  charge: 0.0
  file: /home/modules/software/GPAW-setups/0.9.20000/O.LDA.gz
  compensation charges: gauss, rc=0.21, lmax=2
  cutoffs: 1.17(filt), 0.83(core),
  valence states:
                energy  radius
    2s(2.00)   -23.752   0.688
    2p(4.00)    -9.195   0.598
    *s           3.459   0.688
    *p          18.016   0.598
    *d           0.000   0.619

  Using partial waves for O as LCAO basis

Mn-setup:
  name: Manganese
  id: 0d715a8018be061a6e9ea6f2d364ac92
  Z: 25.0
  valence: 15
  core: 10
  charge: 0.0
  Hubbard U: 3.000000 eV (l=2, scale=True)
  file: /home/modules/software/GPAW-setups/0.9.20000/Mn.LDA.gz
  compensation charges: gauss, rc=0.38, lmax=2
  cutoffs: 2.14(filt), 0.86(core),
  valence states:
                energy  radius
    3s(2.00)   -85.387   1.275
    4s(2.00)    -5.282   1.275
    3p(6.00)   -54.493   1.281
    4p(0.00)    -1.471   1.281
    3d(5.00)    -7.009   1.138
    *d          20.203   1.138

[...]

P-setup:
  name: Phosphorus
  id: a5561c299094968922a179ab894d2e2d
  Z: 15.0
  valence: 5
  core: 10
  charge: 0.0
  file: /home/modules/software/GPAW-setups/0.9.20000/P.LDA.gz
  compensation charges: gauss, rc=0.30, lmax=2
  cutoffs: 1.69(filt), 1.81(core),
  valence states:
                energy  radius
    3s(2.00)   -14.015   0.953
    3p(3.00)    -5.596   0.953
    *s          13.197   0.953
    *p          21.615   0.953
    *d           0.000   0.953

[...]

Li-setup:
  name: Lithium
  id: b73562207f97a71b6967473b66fe8b65
  Z: 3.0
  valence: 1
  core: 2
  charge: 0.0
  file: /home/modules/software/GPAW-setups/0.9.20000/Li.LDA.gz
  compensation charges: gauss, rc=0.33, lmax=2
  cutoffs: 1.91(filt), 2.55(core),
  valence states:
                energy  radius
    2s(1.00)    -2.874   1.058
    2p(0.00)    -1.126   1.058
    *s          24.338   1.058

  Using partial waves for Li as LCAO basis

Reference energy: -196157.275402

Spin-polarized calculation.
Magnetic moment: 0.000000

Convergence criteria:
  Maximum total energy change: 0.0005 eV / electron
  Maximum integral of absolute density change: 0.0001 electrons
  Maximum integral of absolute eigenstate change: 4e-08 eV^2
  Maximum change in atomic force: 1e-06 eV / Ang
  Maximum number of iterations: 333

Symmetries present (total): 1

  ( 1  0  0)
  ( 0  1  0)
  ( 0  0  1)

144 k-points: 6 x 6 x 4 Monkhorst-Pack grid
72 k-points in the irreducible part of the Brillouin zone
       k-points in crystal coordinates                weights
   0:     0.08333333   -0.41666667   -0.37500000          2/144
   1:     0.08333333   -0.41666667   -0.12500000          2/144
   2:     0.08333333   -0.41666667    0.12500000          2/144
   3:     0.08333333   -0.41666667    0.37500000          2/144
   4:     0.08333333   -0.25000000   -0.37500000          2/144
   5:     0.08333333   -0.25000000   -0.12500000          2/144
   6:     0.08333333   -0.25000000    0.12500000          2/144
   7:     0.08333333   -0.25000000    0.37500000          2/144
   8:     0.08333333   -0.08333333   -0.37500000          2/144
   9:     0.08333333   -0.08333333   -0.12500000          2/144
          ...
  71:     0.41666667    0.41666667    0.37500000          2/144

Wave functions: Plane wave expansion
  Cutoff energy: 600.000 eV
  Number of coefficients (min, max): 9238, 9284
  Pulay-stress correction: 0.000000 eV/Ang^3 (de/decut=0.000000)
  Using FFTW library
  ScaLapack parameters: grid=1x1, blocksize=None
  Wavefunction extrapolation:
    Improved wavefunction reuse through dual PAW basis

  Fermi-Dirac: width=0.0010 eV

Eigensolver
   Davidson(niter=2, smin=None, normalize=True)

Densities:
  Coarse grid: 60*35*27 grid
  Fine grid: 120*70*54 grid
  Total Charge: 0.000000

Density mixing:
  Method: difference
  Backend: pulay
  Linear mixing parameter: 0.05
  Mixing with 5 old densities
  Damping of long wave oscillations: 50

Hamiltonian:
  XC and Coulomb potentials evaluated on a 120*70*54 grid
  Using the LDA Exchange-Correlation functional

Total number of cores used: 32
Parallelization over k-points: 32

Number of atoms: 28
Number of atomic orbitals: 148
Number of bands in calculation: 112
Number of valence electrons: 180
Bands to converge: occupied

... initialized

Initializing position-dependent things.

Density initialized from atomic densities
Creating initial wave functions:
  112 bands from LCAO basis set

               O     O  P  O
            PO           OMn     O
                  O          MO
            O        Li O
             Mn  On          OP
         O         Li O
         Li     O P         O
       Li

Positions:
   0 O      3.431891    0.262804    1.044402    ( 0.0000,  0.0000,  0.0000)
   1 O      1.624265    5.683079    3.352369    ( 0.0000,  0.0000,  0.0000)
   2 O      6.680628    3.235446    3.570893    ( 0.0000,  0.0000,  0.0000)
   3 O      8.488207    2.710483    1.262928    ( 0.0000,  0.0000,  0.0000)
   4 O      6.680605    5.683068    3.571026    ( 0.0000,  0.0000,  0.0000)
   5 O      8.488231    0.262793    1.263059    ( 0.0000,  0.0000,  0.0000)
   6 O      3.431867    2.710426    1.044535    ( 0.0000,  0.0000,  0.0000)
   7 O      1.624289    3.235389    3.352500    ( 0.0000,  0.0000,  0.0000)
   8 O      0.527252    1.486664    1.280761    ( 0.0000,  0.0000,  0.0000)
   9 O      4.529050    4.459185    3.588406    ( 0.0000,  0.0000,  0.0000)
  10 O      9.585244    4.459209    3.334667    ( 0.0000,  0.0000,  0.0000)
  11 O      5.583445    1.486687    1.027023    ( 0.0000,  0.0000,  0.0000)
  12 Mn     2.249530    1.486372    2.455799    ( 0.0000,  0.0000,  1.0000)
  13 Mn     2.806784    4.459476    0.147929    ( 0.0000,  0.0000, -1.0000)
  14 Mn     7.862966    4.459500    2.159630    ( 0.0000,  0.0000, -1.0000)
  15 Mn     7.305712    1.486396    4.467499    ( 0.0000,  0.0000,  1.0000)
  16 P      4.165539    1.486666    0.418501    ( 0.0000,  0.0000,  0.0000)
  17 P      0.890729    4.459183    2.726340    ( 0.0000,  0.0000,  0.0000)
  18 P      5.946957    4.459206    4.196927    ( 0.0000,  0.0000,  0.0000)
  19 P      9.221767    1.486689    1.889088    ( 0.0000,  0.0000,  0.0000)
  20 O      4.150861    1.486658    3.508258    ( 0.0000,  0.0000,  0.0000)
  21 O      0.905676    4.459194    1.200655    ( 0.0000,  0.0000,  0.0000)
  22 O      5.961635    4.459215    1.107171    ( 0.0000,  0.0000,  0.0000)
  23 O      9.206820    1.486678    3.414773    ( 0.0000,  0.0000,  0.0000)
  24 Li     0.000000   -0.000000   -0.000000    ( 0.0000,  0.0000,  0.0000)
  25 Li     5.056235    0.000023    2.307714    ( 0.0000,  0.0000,  0.0000)
  26 Li     0.000013    2.972913    0.000000    ( 0.0000,  0.0000,  0.0000)
  27 Li     5.056248    2.972936    2.307714    ( 0.0000,  0.0000,  0.0000)

Unit cell:
           periodic     x           y           z      points  spacing
  1. axis:    yes   10.112485    0.000045   -0.000035    60     0.1685
  2. axis:    yes    0.000026    5.945827    0.000001    35     0.1699
  3. axis:    yes   -0.000016    0.000000    4.615463    27     0.1709

  Lengths:  10.112485   5.945827   4.615463
  Angles:   89.999989  90.000396  89.999490

Effective grid spacing dv^(1/3) = 0.1698

                     log10-error:           total        iterations:
           time      wfs    density  force  energy       poisson  magmom
iter:   1  08:10:25                       -221.376878             +0.0000
iter:   2  08:10:48  -0.61  -0.93         -234.836307             +0.0000
iter:   3  08:11:12  -0.37  -0.97         -225.912473             +0.0000
iter:   4  08:11:36  -1.39  -1.29         -225.761908             +0.0000
iter:   5  08:12:00  -1.27  -1.39         -227.330161             +0.0000
iter:   6  08:12:24  -1.46  -1.46         -225.737695             +0.0000
iter:   7  08:12:47  -2.47  -2.04         -225.725110             +0.0000
iter:   8  08:13:11  -2.14  -1.99         -225.591093             -0.0000
iter:   9  08:13:35  -2.46  -2.09         -225.432704             -0.0000
iter:  10  08:13:59  -3.31  -2.55         -225.422785             -0.0000
iter:  11  08:14:23  -3.65  -2.81         -225.412367             +0.0000
iter:  12  08:14:47  -4.12  -3.05         -225.411256             +0.0000
iter:  13  08:15:10  -5.10  -3.29         -225.411134             -0.0000
iter:  14  08:15:34  -5.39  -3.32         -225.410961             +0.0000
iter:  15  08:15:58  -6.04  -3.43         -225.410967             +0.0000
iter:  16  08:16:22  -5.24  -3.47         -225.411310             +0.0000
iter:  17  08:16:46  -5.87  -3.58         -225.411195             +0.0000
iter:  18  08:17:09  -5.21  -3.70         -225.410909             +0.0000
iter:  19  08:17:33  -6.10  -4.14         -225.410914             +0.0000
iter:  20  08:17:57  -7.28  -4.54         -225.410915             +0.0000
iter:  21  08:18:28  -7.96  -4.56         -225.410915             +0.0000
iter:  22  08:18:59  -7.87  -4.64    -2.44-225.410915             -0.0000
iter:  23  08:19:31  -8.21  -4.85    -2.72-225.410915             -0.0000
iter:  24  08:20:02  -8.12  -5.02    -2.90-225.410915             -0.0000
iter:  25  08:20:33  -9.14  -5.20    -3.30-225.410915             -0.0000
iter:  26  08:21:04  -8.37  -5.31    -2.88-225.410914             -0.0000
iter:  27  08:21:36  -9.50  -5.46    -3.44-225.410914             -0.0000
iter:  28  08:22:07 -10.37  -5.54    -3.91-225.410914             +0.0000
iter:  29  08:22:38  -9.81  -5.58    -3.39-225.410914             +0.0000
iter:  30  08:23:09 -10.90  -5.70    -3.96-225.410914             +0.0000
iter:  31  08:23:41  -9.50  -5.76    -3.61-225.410914             +0.0000
iter:  32  08:24:12 -10.19  -6.06    -4.12-225.410914             +0.0000
iter:  33  08:24:43 -10.99  -6.41    -4.20-225.410914             -0.0000
iter:  34  08:25:14 -10.91  -6.66    -4.67-225.410914             +0.0000
iter:  35  08:25:46 -11.47  -6.97    -5.00-225.410914             +0.0000
iter:  36  08:26:17 -12.84  -7.15    -5.29-225.410914             +0.0000
iter:  37  08:26:48 -13.23  -7.20    -5.29-225.410914             +0.0000
iter:  38  08:27:20 -13.59  -7.26    -5.25-225.410914             +0.0000
iter:  39  08:27:51 -12.48  -7.34    -5.07-225.410914             +0.0000
iter:  40  08:28:22 -14.13  -7.40    -6.74-225.410914             +0.0000

Converged after 40 iterations.

Dipole moment: (-0.000000, -0.000000, 0.000000) |e|*Ang

Total magnetic moment: (0.000000, 0.000000, 0.000000)
Local magnetic moments:
   0 O  ( 0.000000,  0.000000,  0.000664)
   1 O  ( 0.000000,  0.000000, -0.000672)
   2 O  ( 0.000000,  0.000000, -0.000660)
   3 O  ( 0.000000,  0.000000,  0.000668)
   4 O  ( 0.000000,  0.000000, -0.000664)
   5 O  ( 0.000000,  0.000000,  0.000672)
   6 O  ( 0.000000,  0.000000,  0.000660)
   7 O  ( 0.000000,  0.000000, -0.000668)
   8 O  ( 0.000000,  0.000000,  0.022368)
   9 O  ( 0.000000,  0.000000, -0.022368)
  10 O  ( 0.000000,  0.000000, -0.022368)
  11 O  ( 0.000000,  0.000000,  0.022368)
  12 Mn ( 0.000000,  0.000000,  4.575066)
  13 Mn ( 0.000000,  0.000000, -4.575035)
  14 Mn ( 0.000000,  0.000000, -4.575066)
  15 Mn ( 0.000000,  0.000000,  4.575035)
  16 P  ( 0.000000,  0.000000,  0.000812)
  17 P  ( 0.000000,  0.000000, -0.000817)
  18 P  ( 0.000000,  0.000000, -0.000812)
  19 P  ( 0.000000,  0.000000,  0.000817)
  20 O  ( 0.000000,  0.000000,  0.020709)
  21 O  ( 0.000000,  0.000000, -0.020709)
  22 O  ( 0.000000,  0.000000, -0.020709)
  23 O  ( 0.000000,  0.000000,  0.020709)
  24 Li ( 0.000000,  0.000000, -0.000000)
  25 Li ( 0.000000,  0.000000,  0.000000)
  26 Li ( 0.000000,  0.000000,  0.000000)
  27 Li ( 0.000000,  0.000000, -0.000000)

Energy contributions relative to reference atoms: (reference = -196157.275402)

Kinetic:       +296.839049
Potential:     -256.382326
External:        +0.000000
XC:            -267.648558
Entropy (-ST):   -0.000000
Local:           +1.780920
Free energy:   -225.410914
Extrapolated:  -225.410914

Spin contamination: 9.697188 electrons
Showing only first 2 kpts
                      Up                     Down
 Kpt  Band  Eigenvalues  Occupancy  Eigenvalues  Occupancy
  0    88      5.03870    0.01389      5.03870    0.01389
  0    89      5.23106    0.01389      5.23106    0.01389
  0    90      9.62004    0.00000      9.62004    0.00000
  0    91      9.67965    0.00000      9.67965    0.00000

  1    88      5.04440    0.01389      5.04440    0.01389
  1    89      5.22830    0.01389      5.22830    0.01389
  1    90      9.52397    0.00000      9.52397    0.00000
  1    91      9.54691    0.00000      9.54691    0.00000

Fermi level: 6.36989

Gap: 3.796 eV
Transition (v -> c):
  (s=0, k=0, n=89, [0.08, -0.42, -0.38]) -> (s=1, k=13, n=90, [0.08, 0.08, -0.12])
Writing to LiMnPO4.gpw (mode='')

Forces in eV/Ang:
  0 O     0.00007   -0.00056    0.00026
  1 O     0.00013    0.00042    0.00024
  2 O     0.00004   -0.00044    0.00007
  3 O    -0.00022    0.00031    0.00008
  4 O    -0.00007    0.00056   -0.00026
  5 O    -0.00013   -0.00042   -0.00024
  6 O    -0.00004    0.00044   -0.00007
  7 O     0.00022   -0.00031   -0.00008
  8 O     0.00000   -0.00052   -0.00004
  9 O    -0.00004    0.00054   -0.00006
 10 O    -0.00000    0.00052    0.00004
 11 O     0.00004   -0.00054    0.00006
 12 Mn    0.00009    0.00019   -0.00037
 13 Mn    0.00017   -0.00018    0.00065
 14 Mn   -0.00009   -0.00019    0.00037
 15 Mn   -0.00017    0.00018   -0.00065
 16 P     0.00015   -0.00017    0.00012
 17 P    -0.00015    0.00018   -0.00006
 18 P    -0.00015    0.00017   -0.00012
 19 P     0.00015   -0.00018    0.00006
 20 O    -0.00056   -0.00016    0.00031
 21 O    -0.00065    0.00015   -0.00003
 22 O     0.00056    0.00016   -0.00031
 23 O     0.00065   -0.00015    0.00003
 24 Li   -0.00000    0.00000    0.00000
 25 Li   -0.00000   -0.00000    0.00000
 26 Li   -0.00000   -0.00000    0.00000
 27 Li    0.00000    0.00000    0.00000

System changes: positions

[...]

Density initialized from wave functions

[...]

Gap: 3.792 eV
Transition (v -> c):
  (s=1, k=0, n=89, [0.08, -0.42, -0.38]) -> (s=0, k=14, n=90, [0.08, 0.08, 0.12])

[...]

Converged after 35 iterations.

Dipole moment: (-0.000560, 0.000208, 0.067521) |e|*Ang

Total magnetic moment: (0.000000, 0.000000, 0.000000)
Local magnetic moments:
   0 O  ( 0.000000,  0.000000,  0.000663)
   1 O  ( 0.000000,  0.000000, -0.000675)
   2 O  ( 0.000000,  0.000000, -0.000662)
   3 O  ( 0.000000,  0.000000,  0.000675)
   4 O  ( 0.000000,  0.000000, -0.000665)
   5 O  ( 0.000000,  0.000000,  0.000669)
   6 O  ( 0.000000,  0.000000,  0.000658)
   7 O  ( 0.000000,  0.000000, -0.000661)
   8 O  ( 0.000000,  0.000000,  0.022395)
   9 O  ( 0.000000,  0.000000, -0.022366)
  10 O  ( 0.000000,  0.000000, -0.022340)
  11 O  ( 0.000000,  0.000000,  0.022370)
  12 Mn ( 0.000000,  0.000000,  4.575055)
  13 Mn ( 0.000000,  0.000000, -4.575053)
  14 Mn ( 0.000000,  0.000000, -4.575076)
  15 Mn ( 0.000000,  0.000000,  4.575018)
  16 P  ( 0.000000,  0.000000,  0.000812)
  17 P  ( 0.000000,  0.000000, -0.000817)
  18 P  ( 0.000000,  0.000000, -0.000812)
  19 P  ( 0.000000,  0.000000,  0.000816)
  20 O  ( 0.000000,  0.000000,  0.020704)
  21 O  ( 0.000000,  0.000000, -0.020719)
  22 O  ( 0.000000,  0.000000, -0.020713)
  23 O  ( 0.000000,  0.000000,  0.020698)
  24 Li ( 0.000000,  0.000000,  0.000001)
  25 Li ( 0.000000,  0.000000,  0.000000)
  26 Li ( 0.000000,  0.000000, -0.000010)
  27 Li ( 0.000000,  0.000000, -0.000000)

Energy contributions relative to reference atoms: (reference = -196157.275402)

Kinetic:       +296.840626
Potential:     -256.383388
External:        +0.000000
XC:            -267.648864
Entropy (-ST):   -0.000000
Local:           +1.780936
Free energy:   -225.410690
Extrapolated:  -225.410690

Spin contamination: 9.697188 electrons
Showing only first 2 kpts
                      Up                     Down
 Kpt  Band  Eigenvalues  Occupancy  Eigenvalues  Occupancy
  0    88      5.03867    0.01389      5.03870    0.01389
  0    89      5.23119    0.01389      5.23091    0.01389
  0    90      9.62013    0.00000      9.61994    0.00000
  0    91      9.67995    0.00000      9.67932    0.00000

  1    88      5.04434    0.01389      5.04445    0.01389
  1    89      5.22848    0.01389      5.22810    0.01389
  1    90      9.52391    0.00000      9.52401    0.00000
  1    91      9.54706    0.00000      9.54675    0.00000

Fermi level: 6.36989

Gap: 3.795 eV
Transition (v -> c):
  (s=0, k=0, n=89, [0.08, -0.42, -0.38]) -> (s=1, k=10, n=90, [0.08, -0.08, 0.12])

Forces in eV/Ang:
  0 O     0.00038   -0.00043    0.00017
  1 O    -0.00110   -0.00159    0.00197
  2 O     0.00022   -0.00034    0.00004
  3 O    -0.00166   -0.00069   -0.00004
  4 O     0.00025    0.00070   -0.00035
  5 O    -0.00136   -0.00243    0.00147
  6 O     0.00013    0.00054   -0.00010
  7 O    -0.00105   -0.00125   -0.00038
  8 O    -0.00093    0.00034   -0.00074
  9 O    -0.00035    0.00046   -0.00027
 10 O    -0.00100    0.00161   -0.00089
 11 O    -0.00026   -0.00061   -0.00014
 12 Mn   -0.00055   -0.00172   -0.00462
 13 Mn   -0.00058    0.00059    0.00352
 14 Mn   -0.00074   -0.00208   -0.00389
 15 Mn   -0.00090    0.00096    0.00222
 16 P     0.00034   -0.00039    0.00102
 17 P     0.00888    0.01402   -0.02749
 18 P     0.00005   -0.00006    0.00078
 19 P     0.00901    0.01339   -0.02731
 20 O    -0.00094    0.00003   -0.00001
 21 O     0.00031    0.00039    0.00396
 22 O     0.00019    0.00035   -0.00063
 23 O     0.00154   -0.00002    0.00389
 24 Li    0.00080    0.00009    0.00323
 25 Li    0.00005    0.00004   -0.00018
 26 Li   -0.01098   -0.02186    0.04496
 27 Li    0.00025   -0.00006   -0.00021

System changes: positions

Initializing position-dependent things.

Density initialized from wave functions

               O     O  P  O
            PO           OMn     O
                  O          MO
            O        Li O
             Mn  On          OP
         O         Li O
         Li     O P         O
       Li

Positions:
   0 O      3.431891    0.262804    1.044402    ( 0.0000,  0.0000,  0.0000)
   1 O      1.624265    5.683079    3.352369    ( 0.0000,  0.0000,  0.0000)
   2 O      6.680628    3.235446    3.570893    ( 0.0000,  0.0000,  0.0000)
   3 O      8.488207    2.710483    1.262928    ( 0.0000,  0.0000,  0.0000)
   4 O      6.680605    5.683068    3.571026    ( 0.0000,  0.0000,  0.0000)
   5 O      8.488231    0.262793    1.263059    ( 0.0000,  0.0000,  0.0000)
   6 O      3.431867    2.710426    1.044535    ( 0.0000,  0.0000,  0.0000)
   7 O      1.624289    3.235389    3.352500    ( 0.0000,  0.0000,  0.0000)
   8 O      0.527252    1.486664    1.280761    ( 0.0000,  0.0000,  0.0000)
   9 O      4.529050    4.459185    3.588406    ( 0.0000,  0.0000,  0.0000)
  10 O      9.585244    4.459209    3.334667    ( 0.0000,  0.0000,  0.0000)
  11 O      5.583445    1.486687    1.027023    ( 0.0000,  0.0000,  0.0000)
  12 Mn     2.249530    1.486372    2.455799    ( 0.0000,  0.0000,  1.0000)
  13 Mn     2.806784    4.459476    0.147929    ( 0.0000,  0.0000, -1.0000)
  14 Mn     7.862966    4.459500    2.159630    ( 0.0000,  0.0000, -1.0000)
  15 Mn     7.305712    1.486396    4.467499    ( 0.0000,  0.0000,  1.0000)
  16 P      4.165539    1.486666    0.418501    ( 0.0000,  0.0000,  0.0000)
  17 P      0.890729    4.459183    2.726340    ( 0.0000,  0.0000,  0.0000)
  18 P      5.946957    4.459206    4.196927    ( 0.0000,  0.0000,  0.0000)
  19 P      9.221767    1.486689    1.889088    ( 0.0000,  0.0000,  0.0000)
  20 O      4.150861    1.486658    3.508258    ( 0.0000,  0.0000,  0.0000)
  21 O      0.905676    4.459194    1.200655    ( 0.0000,  0.0000,  0.0000)
  22 O      5.961635    4.459215    1.107171    ( 0.0000,  0.0000,  0.0000)
  23 O      9.206820    1.486678    3.414773    ( 0.0000,  0.0000,  0.0000)
  24 Li     0.000000   -0.000000   -0.000000    ( 0.0000,  0.0000,  0.0000)
  25 Li     5.056235    0.000023    2.307714    ( 0.0000,  0.0000,  0.0000)
  26 Li     0.000013    2.972913    0.010000    ( 0.0000,  0.0000,  0.0000)
  27 Li     5.056248    2.972936    2.307714    ( 0.0000,  0.0000,  0.0000)

Unit cell:
           periodic     x           y           z      points  spacing
  1. axis:    yes   10.112485    0.000045   -0.000035    60     0.1685
  2. axis:    yes    0.000026    5.945827    0.000001    35     0.1699
  3. axis:    yes   -0.000016    0.000000    4.615463    27     0.1709

  Lengths:  10.112485   5.945827   4.615463
  Angles:   89.999989  90.000396  89.999490

Effective grid spacing dv^(1/3) = 0.1698

                     log10-error:           total        iterations:
           time      wfs    density  force  energy       poisson  magmom
iter:   1  08:05:41  -3.91                -225.410835             -0.0000
iter:   2  08:06:05  -5.13  -3.70         -225.410840             -0.0000
iter:   3  08:06:28  -5.02  -3.73         -225.410710             +0.0000
iter:   4  08:06:52  -6.28  -4.16         -225.410705             -0.0000
iter:   5  08:07:16  -5.65  -4.17         -225.410720             -0.0000
iter:   6  08:07:39  -5.97  -4.10         -225.410691             -0.0000
iter:   7  08:08:03  -6.96  -4.64         -225.410691             -0.0000
iter:   8  08:08:34  -7.59  -4.66         -225.410690             +0.0000