User:   madkru@g006.nifl.fysik.dtu.dk
Date:   Tue Mar 23 20:11:06 2021
Arch:   x86_64
Pid:    12017
Python: 3.7.4
gpaw:   /home/niflheim/madkru/venv_folder/gpaw/gpaw (d0d1ca1c71)
_gpaw:  /home/niflheim/madkru/venv_folder/gpaw/build/lib.linux-x86_64-sandybridge-3.7/
        _gpaw.cpython-37m-x86_64-linux-gnu.so (4fd39e8b1e)
ase:    /home/niflheim/madkru/venv_folder/ase/ase (version 3.21.0b1-7e6c206a91)
numpy:  /home/niflheim/madkru/venv_folder/lib/python3.7/site-packages/numpy (version 1.19.4)
scipy:  /home/niflheim/madkru/venv_folder/lib/python3.7/site-packages/scipy (version 1.5.4)
units:  Angstrom and eV
cores: 64
OMP_NUM_THREADS: 1

Input parameters:
  convergence: {bands: occupied,
                density: 0.0001,
                eigenstates: 4e-08,
                energy: 0.0005,
                forces: 1e-06}
  kpts: [6 6 4]
  mode: {ecut: 600.0,
         gammacentered: False,
         name: pw}
  occupations: {fixmagmom: False,
                name: fermi-dirac,
                width: 0.001}
  setups: {Mn: :d,3.0}
  symmetry: {point_group: False,
             time_reversal: False}

System changes: positions, numbers, cell, pbc, initial_charges, initial_magmoms

Initialize ...

O-setup:
  name: Oxygen
  id: 9b9d51c344dea68c822856295a461509
  Z: 8.0
  valence: 6
  core: 2
  charge: 0.0
  file: /home/modules/software/GPAW-setups/0.9.20000/O.LDA.gz
  compensation charges: gauss, rc=0.21, lmax=2
  cutoffs: 1.17(filt), 0.83(core),
  valence states:
                energy  radius
    2s(2.00)   -23.752   0.688
    2p(4.00)    -9.195   0.598
    *s           3.459   0.688
    *p          18.016   0.598
    *d           0.000   0.619

  Using partial waves for O as LCAO basis

Mn-setup:
  name: Manganese
  id: 0d715a8018be061a6e9ea6f2d364ac92
  Z: 25.0
  valence: 15
  core: 10
  charge: 0.0
  Hubbard U: 3.000000 eV (l=2, scale=True)
  file: /home/modules/software/GPAW-setups/0.9.20000/Mn.LDA.gz
  compensation charges: gauss, rc=0.38, lmax=2
  cutoffs: 2.14(filt), 0.86(core),
  valence states:
                energy  radius
    3s(2.00)   -85.387   1.275
    4s(2.00)    -5.282   1.275
    3p(6.00)   -54.493   1.281
    4p(0.00)    -1.471   1.281
    3d(5.00)    -7.009   1.138
    *d          20.203   1.138

[...]

P-setup:
  name: Phosphorus
  id: a5561c299094968922a179ab894d2e2d
  Z: 15.0
  valence: 5
  core: 10
  charge: 0.0
  file: /home/modules/software/GPAW-setups/0.9.20000/P.LDA.gz
  compensation charges: gauss, rc=0.30, lmax=2
  cutoffs: 1.69(filt), 1.81(core),
  valence states:
                energy  radius
    3s(2.00)   -14.015   0.953
    3p(3.00)    -5.596   0.953
    *s          13.197   0.953
    *p          21.615   0.953
    *d           0.000   0.953

[...]

Li-setup:
  name: Lithium
  id: b73562207f97a71b6967473b66fe8b65
  Z: 3.0
  valence: 1
  core: 2
  charge: 0.0
  file: /home/modules/software/GPAW-setups/0.9.20000/Li.LDA.gz
  compensation charges: gauss, rc=0.33, lmax=2
  cutoffs: 1.91(filt), 2.55(core),
  valence states:
                energy  radius
    2s(1.00)    -2.874   1.058
    2p(0.00)    -1.126   1.058
    *s          24.338   1.058

  Using partial waves for Li as LCAO basis

Reference energy: -196157.275402

Spin-polarized calculation.
Magnetic moment: 0.000000

Convergence criteria:
  Maximum total energy change: 0.0005 eV / electron
  Maximum integral of absolute density change: 0.0001 electrons
  Maximum integral of absolute eigenstate change: 4e-08 eV^2
  Maximum change in atomic force: 1e-06 eV / Ang
  Maximum number of iterations: 333

Symmetries present (total): 1

  ( 1  0  0)
  ( 0  1  0)
  ( 0  0  1)

144 k-points: 6 x 6 x 4 Monkhorst-Pack grid
144 k-points in the irreducible part of the Brillouin zone
       k-points in crystal coordinates                weights
   0:    -0.41666667   -0.41666667   -0.37500000          1/144
   1:    -0.41666667   -0.41666667   -0.12500000          1/144
   2:    -0.41666667   -0.41666667    0.12500000          1/144
   3:    -0.41666667   -0.41666667    0.37500000          1/144
   4:    -0.41666667   -0.25000000   -0.37500000          1/144
   5:    -0.41666667   -0.25000000   -0.12500000          1/144
   6:    -0.41666667   -0.25000000    0.12500000          1/144
   7:    -0.41666667   -0.25000000    0.37500000          1/144
   8:    -0.41666667   -0.08333333   -0.37500000          1/144
   9:    -0.41666667   -0.08333333   -0.12500000          1/144
          ...
 143:     0.41666667    0.41666667    0.37500000          1/144

Wave functions: Plane wave expansion
  Cutoff energy: 600.000 eV
  Number of coefficients (min, max): 10068, 10125
  Pulay-stress correction: 0.000000 eV/Ang^3 (de/decut=0.000000)
  Using FFTW library
  ScaLapack parameters: grid=1x1, blocksize=None
  Wavefunction extrapolation:
    Improved wavefunction reuse through dual PAW basis

  Fermi-Dirac: width=0.0010 eV

Eigensolver
   Davidson(niter=2, smin=None, normalize=True)

Densities:
  Coarse grid: 60*35*27 grid
  Fine grid: 120*70*54 grid
  Total Charge: 0.000000

Density mixing:
  Method: difference
  Backend: pulay
  Linear mixing parameter: 0.05
  Mixing with 5 old densities
  Damping of long wave oscillations: 50

Hamiltonian:
  XC and Coulomb potentials evaluated on a 120*70*54 grid
  Using the LDA Exchange-Correlation functional

Total number of cores used: 64
Parallelization over k-points: 16
Domain decomposition: 2 x 2 x 1

Number of atoms: 28
Number of atomic orbitals: 148
Number of bands in calculation: 112
Number of valence electrons: 180
Bands to converge: occupied

... initialized

Initializing position-dependent things.

Density initialized from atomic densities
Creating initial wave functions:
  112 bands from LCAO basis set

    /|         OP              |
   / |O            O        O  |
  /  |       O            O  P |
 *   |O    Mn      O           |
 |   |          OLi          O |
 |   P--O--------------Mn------.
 |  /          Li    O  Mn  O /
 | /LiO           PO         /
 |/       Mn                /
 *Li-----------------------*

Positions:
   0 O     -1.330281   -2.539252   -1.168500    ( 0.0000,  0.0000,  0.0000)
   1 O     -3.152392    2.974909    1.200956    ( 0.0000,  0.0000,  0.0000)
   2 O      2.077234    0.510133    1.506966    ( 0.0000,  0.0000,  0.0000)
   3 O      3.899724   -0.074476   -0.862491    ( 0.0000,  0.0000,  0.0000)
   4 O      2.077424    2.974966    1.507072    ( 0.0000,  0.0000,  0.0000)
   5 O      3.899535   -2.539195   -0.862384    ( 0.0000,  0.0000,  0.0000)
   6 O     -1.330092   -0.074418   -1.168395    ( 0.0000,  0.0000,  0.0000)
   7 O     -3.152581    0.510191    1.201063    ( 0.0000,  0.0000,  0.0000)
   8 O     -4.389675   -1.306969   -0.813152    ( 0.0000,  0.0000,  0.0000)
   9 O     -0.093301    1.742683    1.556268    ( 0.0000,  0.0000,  0.0000)
  10 O      5.136817    1.742683    1.151723    ( 0.0000,  0.0000,  0.0000)
  11 O      0.840444   -1.306969   -1.217697    ( 0.0000,  0.0000,  0.0000)
  12 Mn    -2.547192   -1.307258    0.273595    ( 0.0000,  0.0000,  1.0000)
  13 Mn    -1.925535    1.742972   -2.096623    ( 0.0000,  0.0000, -1.0000)
  14 Mn     3.304335    1.742972    0.064976    ( 0.0000,  0.0000, -1.0000)
  15 Mn     2.672678   -1.307258    2.435195    ( 0.0000,  0.0000,  1.0000)
  16 P     -0.597175   -1.306854   -1.801474    ( 0.0000,  0.0000,  0.0000)
  17 P     -3.885565    1.742568    0.568028    ( 0.0000,  0.0000,  0.0000)
  18 P      1.344318    1.742568    2.140045    ( 0.0000,  0.0000,  0.0000)
  19 P      4.632708   -1.306854   -0.229456    ( 0.0000,  0.0000,  0.0000)
  20 O     -0.636957   -1.306861    1.403074    ( 0.0000,  0.0000,  0.0000)
  21 O     -3.845824    1.742575   -0.967462    ( 0.0000,  0.0000,  0.0000)
  22 O      1.384100    1.742576   -1.064503    ( 0.0000,  0.0000,  0.0000)
  23 O      4.592967   -1.306861    1.306033    ( 0.0000,  0.0000,  0.0000)
  24 Li    -4.856429   -2.832143   -2.200714    ( 0.0000,  0.0000,  0.0000)
  25 Li     0.373571   -2.832143    0.169286    ( 0.0000,  0.0000,  0.0000)
  26 Li    -4.856429    0.217857   -2.200714    ( 0.0000,  0.0000,  0.0000)
  27 Li     0.373571    0.217857    0.169286    ( 0.0000,  0.0000,  0.0000)

Unit cell:
           periodic     x           y           z      points  spacing
  1. axis:    yes   10.460000    0.000000    0.000000    60     0.1743
  2. axis:    yes    0.000000    6.100000    0.000000    35     0.1743
  3. axis:    yes    0.000000    0.000000    4.740000    27     0.1756

  Lengths:  10.460000   6.100000   4.740000
  Angles:   90.000000  90.000000  90.000000

Effective grid spacing dv^(1/3) = 0.1747

                     log10-error:           total        iterations:
           time      wfs    density  force  energy       poisson  magmom
iter:   1  20:12:40                       -220.687267             +0.0000
iter:   2  20:13:01  -0.64  -0.92         -235.500465             +0.0000
iter:   3  20:13:23  -0.40  -0.96         -226.168366             -0.0000
iter:   4  20:13:44  -1.41  -1.29         -225.887868             +0.0000
iter:   5  20:14:06  -1.19  -1.38         -227.589085             +0.0000
iter:   6  20:14:27  -1.39  -1.51         -225.828967             +0.0000
iter:   7  20:14:49  -2.57  -2.06         -225.898400             +0.0000
iter:   8  20:15:10  -2.23  -2.01         -225.643897             -0.0000
iter:   9  20:15:32  -2.67  -2.08         -225.546466             +0.0000
iter:  10  20:15:53  -3.55  -2.94         -225.545633             +0.0000
iter:  11  20:16:14  -3.95  -3.00         -225.547282             +0.0000
iter:  12  20:16:36  -4.29  -3.22         -225.547463             +0.0000
iter:  13  20:16:57  -5.36  -3.36         -225.547351             -0.0000
iter:  14  20:17:19  -5.17  -3.44         -225.547205             -0.0000
iter:  15  20:17:40  -5.34  -3.60         -225.547112             -0.0000
iter:  16  20:18:02  -6.29  -3.69         -225.547100             +0.0000
iter:  17  20:18:23  -6.30  -3.76         -225.547117             -0.0000
iter:  18  20:18:44  -6.78  -3.82         -225.547118             -0.0000
iter:  19  20:19:06  -5.83  -3.84         -225.547084             -0.0000
iter:  20  20:19:27  -7.03  -4.43         -225.547081             -0.0000
iter:  21  20:19:54  -7.65  -4.68         -225.547078             -0.0000
iter:  22  20:20:21  -7.44  -4.79    -2.60-225.547077             -0.0000
iter:  23  20:20:48  -8.02  -4.76    -2.67-225.547076             -0.0000
iter:  24  20:21:14  -8.44  -4.90    -3.11-225.547076             -0.0000
iter:  25  20:21:41  -7.52  -4.94    -2.56-225.547077             -0.0000
iter:  26  20:22:08  -8.14  -4.97    -2.93-225.547076             -0.0000
iter:  27  20:22:35  -7.91  -5.09    -3.21-225.547076             -0.0000
iter:  28  20:23:02  -7.78  -5.00    -2.77-225.547076             -0.0000
iter:  29  20:23:28  -7.96  -5.12    -2.80-225.547076             -0.0000
iter:  30  20:23:55  -8.95  -5.36    -3.32-225.547076             -0.0000
iter:  31  20:24:22  -8.67  -5.70    -3.36-225.547076             -0.0000
iter:  32  20:24:49  -9.33  -5.59    -3.57-225.547076             -0.0000
iter:  33  20:25:16 -10.18  -6.15    -4.37-225.547076             -0.0000
iter:  34  20:25:42 -10.59  -6.25    -3.95-225.547076             -0.0000
iter:  35  20:26:09 -11.32  -6.59    -4.92-225.547076             -0.0000
iter:  36  20:26:36 -12.02  -6.64    -5.55-225.547076             -0.0000
iter:  37  20:27:03 -12.01  -6.68    -5.04-225.547076             -0.0000
iter:  38  20:27:30 -12.31  -6.85    -5.14-225.547076             -0.0000
iter:  39  20:27:57 -12.28  -6.89    -5.39-225.547076             -0.0000
iter:  40  20:28:23 -11.95  -6.94    -5.33-225.547076             -0.0000
iter:  41  20:28:50 -12.44  -6.98    -5.06-225.547076             -0.0000
iter:  42  20:29:17 -13.14  -7.13    -5.22-225.547076             -0.0000
iter:  43  20:29:44 -13.41  -7.21    -5.61-225.547076             -0.0000
iter:  44  20:30:11 -12.79  -7.25    -5.63-225.547076             -0.0000
iter:  45  20:30:37 -12.72  -7.30    -5.32-225.547076             -0.0000
iter:  46  20:31:04 -13.49  -7.49    -5.93-225.547076             -0.0000
iter:  47  20:31:31 -13.74  -7.65    -6.15-225.547076             -0.0000

Converged after 47 iterations.

Dipole moment: (13.170506, 1.715131, -5.512823) |e|*Ang

Total magnetic moment: (0.000000, 0.000000, -0.000000)
Local magnetic moments:
   0 O  ( 0.000000,  0.000000,  0.001335)
   1 O  ( 0.000000,  0.000000, -0.001205)
   2 O  ( 0.000000,  0.000000, -0.001042)
   3 O  ( 0.000000,  0.000000,  0.001029)
   4 O  ( 0.000000,  0.000000, -0.001050)
   5 O  ( 0.000000,  0.000000,  0.001038)
   6 O  ( 0.000000,  0.000000,  0.001327)
   7 O  ( 0.000000,  0.000000, -0.001197)
   8 O  ( 0.000000,  0.000000,  0.019480)
   9 O  ( 0.000000,  0.000000, -0.019756)
  10 O  ( 0.000000,  0.000000, -0.019793)
  11 O  ( 0.000000,  0.000000,  0.019739)
  12 Mn ( 0.000000,  0.000000,  4.601688)
  13 Mn ( 0.000000,  0.000000, -4.601523)
  14 Mn ( 0.000000,  0.000000, -4.601529)
  15 Mn ( 0.000000,  0.000000,  4.601571)
  16 P  ( 0.000000,  0.000000,  0.001431)
  17 P  ( 0.000000,  0.000000, -0.001334)
  18 P  ( 0.000000,  0.000000, -0.001297)
  19 P  ( 0.000000,  0.000000,  0.001201)
  20 O  ( 0.000000,  0.000000,  0.018331)
  21 O  ( 0.000000,  0.000000, -0.018103)
  22 O  ( 0.000000,  0.000000, -0.018054)
  23 O  ( 0.000000,  0.000000,  0.018081)
  24 Li ( 0.000000,  0.000000, -0.000008)
  25 Li ( 0.000000,  0.000000, -0.000003)
  26 Li ( 0.000000,  0.000000, -0.000008)
  27 Li ( 0.000000,  0.000000, -0.000003)

Energy contributions relative to reference atoms: (reference = -196157.275402)

Kinetic:       +242.947071
Potential:     -215.437574
External:        +0.000000
XC:            -254.971892
Entropy (-ST):   -0.000000
Local:           +1.915320
Free energy:   -225.547076
Extrapolated:  -225.547076

Spin contamination: 9.747281 electrons
Showing only first 2 kpts
                      Up                     Down
 Kpt  Band  Eigenvalues  Occupancy  Eigenvalues  Occupancy
  0    88      3.92118    0.00694      3.92118    0.00694
  0    89      3.96894    0.00694      3.97122    0.00694
  0    90      8.66796    0.00000      8.66735    0.00000
  0    91      8.68448    0.00000      8.68784    0.00000

  1    88      3.91777    0.00694      3.91794    0.00694
  1    89      3.97267    0.00694      3.97499    0.00694
  1    90      8.51305    0.00000      8.51547    0.00000
  1    91      8.52822    0.00000      8.53108    0.00000

Fermi level: 5.31811

Gap: 3.779 eV
Transition (v -> c):
  (s=1, k=69, n=89, [-0.08, 0.42, -0.12]) -> (s=0, k=85, n=90, [0.08, 0.08, -0.12])
Writing to born-0.01-12x+.gpw (mode='all')