User:   madkru@g006.nifl.fysik.dtu.dk
Date:   Wed Mar 24 09:16:45 2021
Arch:   x86_64
Pid:    12017
Python: 3.7.4
gpaw:   /home/niflheim/madkru/venv_folder/gpaw/gpaw (d0d1ca1c71)
_gpaw:  /home/niflheim/madkru/venv_folder/gpaw/build/lib.linux-x86_64-sandybridge-3.7/
        _gpaw.cpython-37m-x86_64-linux-gnu.so (4fd39e8b1e)
ase:    /home/niflheim/madkru/venv_folder/ase/ase (version 3.21.0b1-7e6c206a91)
numpy:  /home/niflheim/madkru/venv_folder/lib/python3.7/site-packages/numpy (version 1.19.4)
scipy:  /home/niflheim/madkru/venv_folder/lib/python3.7/site-packages/scipy (version 1.5.4)
units:  Angstrom and eV
cores: 64
OMP_NUM_THREADS: 1

Input parameters:
  convergence: {bands: occupied,
                density: 0.0001,
                eigenstates: 4e-08,
                energy: 0.0005,
                forces: 1e-06}
  kpts: [6 6 4]
  mode: {ecut: 600.0,
         gammacentered: False,
         name: pw}
  occupations: {fixmagmom: False,
                name: fermi-dirac,
                width: 0.001}
  setups: {Mn: :d,3.0}
  symmetry: {point_group: False,
             time_reversal: False}

System changes: positions, numbers, cell, pbc, initial_charges, initial_magmoms

Initialize ...

O-setup:
  name: Oxygen
  id: 9b9d51c344dea68c822856295a461509
  Z: 8.0
  valence: 6
  core: 2
  charge: 0.0
  file: /home/modules/software/GPAW-setups/0.9.20000/O.LDA.gz
  compensation charges: gauss, rc=0.21, lmax=2
  cutoffs: 1.17(filt), 0.83(core),
  valence states:
                energy  radius
    2s(2.00)   -23.752   0.688
    2p(4.00)    -9.195   0.598
    *s           3.459   0.688
    *p          18.016   0.598
    *d           0.000   0.619

  Using partial waves for O as LCAO basis

Mn-setup:
  name: Manganese
  id: 0d715a8018be061a6e9ea6f2d364ac92
  Z: 25.0
  valence: 15
  core: 10
  charge: 0.0
  Hubbard U: 3.000000 eV (l=2, scale=True)
  file: /home/modules/software/GPAW-setups/0.9.20000/Mn.LDA.gz
  compensation charges: gauss, rc=0.38, lmax=2
  cutoffs: 2.14(filt), 0.86(core),
  valence states:
                energy  radius
    3s(2.00)   -85.387   1.275
    4s(2.00)    -5.282   1.275
    3p(6.00)   -54.493   1.281
    4p(0.00)    -1.471   1.281
    3d(5.00)    -7.009   1.138
    *d          20.203   1.138

[...]

P-setup:
  name: Phosphorus
  id: a5561c299094968922a179ab894d2e2d
  Z: 15.0
  valence: 5
  core: 10
  charge: 0.0
  file: /home/modules/software/GPAW-setups/0.9.20000/P.LDA.gz
  compensation charges: gauss, rc=0.30, lmax=2
  cutoffs: 1.69(filt), 1.81(core),
  valence states:
                energy  radius
    3s(2.00)   -14.015   0.953
    3p(3.00)    -5.596   0.953
    *s          13.197   0.953
    *p          21.615   0.953
    *d           0.000   0.953

[...]

Li-setup:
  name: Lithium
  id: b73562207f97a71b6967473b66fe8b65
  Z: 3.0
  valence: 1
  core: 2
  charge: 0.0
  file: /home/modules/software/GPAW-setups/0.9.20000/Li.LDA.gz
  compensation charges: gauss, rc=0.33, lmax=2
  cutoffs: 1.91(filt), 2.55(core),
  valence states:
                energy  radius
    2s(1.00)    -2.874   1.058
    2p(0.00)    -1.126   1.058
    *s          24.338   1.058

  Using partial waves for Li as LCAO basis

Reference energy: -196157.275402

Spin-polarized calculation.
Magnetic moment: 0.000000

Convergence criteria:
  Maximum total energy change: 0.0005 eV / electron
  Maximum integral of absolute density change: 0.0001 electrons
  Maximum integral of absolute eigenstate change: 4e-08 eV^2
  Maximum change in atomic force: 1e-06 eV / Ang
  Maximum number of iterations: 333

Symmetries present (total): 1

  ( 1  0  0)
  ( 0  1  0)
  ( 0  0  1)

144 k-points: 6 x 6 x 4 Monkhorst-Pack grid
144 k-points in the irreducible part of the Brillouin zone
       k-points in crystal coordinates                weights
   0:    -0.41666667   -0.41666667   -0.37500000          1/144
   1:    -0.41666667   -0.41666667   -0.12500000          1/144
   2:    -0.41666667   -0.41666667    0.12500000          1/144
   3:    -0.41666667   -0.41666667    0.37500000          1/144
   4:    -0.41666667   -0.25000000   -0.37500000          1/144
   5:    -0.41666667   -0.25000000   -0.12500000          1/144
   6:    -0.41666667   -0.25000000    0.12500000          1/144
   7:    -0.41666667   -0.25000000    0.37500000          1/144
   8:    -0.41666667   -0.08333333   -0.37500000          1/144
   9:    -0.41666667   -0.08333333   -0.12500000          1/144
          ...
 143:     0.41666667    0.41666667    0.37500000          1/144

Wave functions: Plane wave expansion
  Cutoff energy: 600.000 eV
  Number of coefficients (min, max): 10068, 10125
  Pulay-stress correction: 0.000000 eV/Ang^3 (de/decut=0.000000)
  Using FFTW library
  ScaLapack parameters: grid=1x1, blocksize=None
  Wavefunction extrapolation:
    Improved wavefunction reuse through dual PAW basis

  Fermi-Dirac: width=0.0010 eV

Eigensolver
   Davidson(niter=2, smin=None, normalize=True)

Densities:
  Coarse grid: 60*35*27 grid
  Fine grid: 120*70*54 grid
  Total Charge: 0.000000

Density mixing:
  Method: difference
  Backend: pulay
  Linear mixing parameter: 0.05
  Mixing with 5 old densities
  Damping of long wave oscillations: 50

Hamiltonian:
  XC and Coulomb potentials evaluated on a 120*70*54 grid
  Using the LDA Exchange-Correlation functional

Total number of cores used: 64
Parallelization over k-points: 16
Domain decomposition: 2 x 2 x 1

Number of atoms: 28
Number of atomic orbitals: 148
Number of bands in calculation: 112
Number of valence electrons: 180
Bands to converge: occupied

... initialized

Initializing position-dependent things.

Density initialized from atomic densities
Creating initial wave functions:
  112 bands from LCAO basis set

    /|         OP              |
   / |O            O        O  |
  /  |       O            O  P |
 *   |O    Mn      O           |
 |   |          OLi          O |
 |   P--O--------------Mn------.
 |  /          Li    O  Mn  O /
 | /LiO           PO         /
 |/       Mn                /
 *Li-----------------------*

Positions:
   0 O     -1.330281   -2.539252   -1.168500    ( 0.0000,  0.0000,  0.0000)
   1 O     -3.152392    2.974909    1.200956    ( 0.0000,  0.0000,  0.0000)
   2 O      2.077234    0.510133    1.506966    ( 0.0000,  0.0000,  0.0000)
   3 O      3.899724   -0.074476   -0.862491    ( 0.0000,  0.0000,  0.0000)
   4 O      2.077424    2.974966    1.507072    ( 0.0000,  0.0000,  0.0000)
   5 O      3.899535   -2.539195   -0.862384    ( 0.0000,  0.0000,  0.0000)
   6 O     -1.330092   -0.074418   -1.168395    ( 0.0000,  0.0000,  0.0000)
   7 O     -3.152581    0.510191    1.201063    ( 0.0000,  0.0000,  0.0000)
   8 O     -4.389675   -1.306969   -0.813152    ( 0.0000,  0.0000,  0.0000)
   9 O     -0.093301    1.742683    1.556268    ( 0.0000,  0.0000,  0.0000)
  10 O      5.136817    1.742683    1.151723    ( 0.0000,  0.0000,  0.0000)
  11 O      0.840444   -1.306969   -1.217697    ( 0.0000,  0.0000,  0.0000)
  12 Mn    -2.557192   -1.307258    0.273595    ( 0.0000,  0.0000,  1.0000)
  13 Mn    -1.925535    1.742972   -2.096623    ( 0.0000,  0.0000, -1.0000)
  14 Mn     3.304335    1.742972    0.064976    ( 0.0000,  0.0000, -1.0000)
  15 Mn     2.672678   -1.307258    2.435195    ( 0.0000,  0.0000,  1.0000)
  16 P     -0.597175   -1.296854   -1.801474    ( 0.0000,  0.0000,  0.0000)
  17 P     -3.885565    1.742568    0.568028    ( 0.0000,  0.0000,  0.0000)
  18 P      1.344318    1.742568    2.140045    ( 0.0000,  0.0000,  0.0000)
  19 P      4.632708   -1.306854   -0.229456    ( 0.0000,  0.0000,  0.0000)
  20 O     -0.636957   -1.306861    1.403074    ( 0.0000,  0.0000,  0.0000)
  21 O     -3.845824    1.742575   -0.967462    ( 0.0000,  0.0000,  0.0000)
  22 O      1.384100    1.742576   -1.064503    ( 0.0000,  0.0000,  0.0000)
  23 O      4.592967   -1.306861    1.306033    ( 0.0000,  0.0000,  0.0000)
  24 Li    -4.856429   -2.832143   -2.200714    ( 0.0000,  0.0000,  0.0000)
  25 Li     0.373571   -2.832143    0.169286    ( 0.0000,  0.0000,  0.0000)
  26 Li    -4.856429    0.217857   -2.200714    ( 0.0000,  0.0000,  0.0000)
  27 Li     0.373571    0.217857    0.169286    ( 0.0000,  0.0000,  0.0000)

Unit cell:
           periodic     x           y           z      points  spacing
  1. axis:    yes   10.460000    0.000000    0.000000    60     0.1743
  2. axis:    yes    0.000000    6.100000    0.000000    35     0.1743
  3. axis:    yes    0.000000    0.000000    4.740000    27     0.1756

  Lengths:  10.460000   6.100000   4.740000
  Angles:   90.000000  90.000000  90.000000

Effective grid spacing dv^(1/3) = 0.1747

                     log10-error:           total        iterations:
           time      wfs    density  force  energy       poisson  magmom
iter:   1  09:18:19                       -220.686528             +0.0000
iter:   2  09:18:40  -0.64  -0.92         -235.501862             +0.0000
iter:   3  09:19:01  -0.40  -0.96         -226.166575             -0.0000
iter:   4  09:19:23  -1.41  -1.29         -225.885987             +0.0000
iter:   5  09:19:44  -1.19  -1.38         -227.586460             +0.0000
iter:   6  09:20:06  -1.39  -1.51         -225.826705             +0.0000
iter:   7  09:20:27  -2.57  -2.06         -225.896075             +0.0000
iter:   8  09:20:48  -2.23  -2.01         -225.641619             -0.0000
iter:   9  09:21:10  -2.67  -2.08         -225.544347             +0.0000
iter:  10  09:21:31  -3.54  -2.94         -225.543448             +0.0000
iter:  11  09:21:52  -3.95  -3.00         -225.545201             +0.0000
iter:  12  09:22:14  -4.30  -3.22         -225.545355             +0.0000
iter:  13  09:22:35  -5.39  -3.36         -225.545257             -0.0000
iter:  14  09:22:57  -5.20  -3.44         -225.545119             -0.0000
iter:  15  09:23:18  -5.38  -3.60         -225.545037             -0.0000
iter:  16  09:23:39  -6.34  -3.68         -225.545017             +0.0000
iter:  17  09:24:01  -6.24  -3.75         -225.545037             -0.0000
iter:  18  09:24:22  -6.72  -3.81         -225.545039             -0.0000
iter:  19  09:24:43  -5.81  -3.83         -225.545002             -0.0000
iter:  20  09:25:05  -6.94  -4.39         -225.544999             -0.0000
iter:  21  09:25:32  -7.87  -4.69         -225.544997             -0.0000
iter:  22  09:25:53  -7.02  -4.78         -225.544995             +0.0000
iter:  23  09:26:20  -7.59  -4.68    -2.82-225.544994             +0.0000
iter:  24  09:26:46  -8.70  -5.01    -3.36-225.544994             +0.0000
iter:  25  09:27:13  -7.87  -5.03    -2.53-225.544994             +0.0000
iter:  26  09:27:40  -8.11  -4.96    -2.83-225.544994             +0.0000
iter:  27  09:28:07  -9.09  -5.60    -3.82-225.544994             +0.0000
iter:  28  09:28:33  -9.57  -5.63    -3.66-225.544994             +0.0000
iter:  29  09:29:00  -9.96  -5.68    -3.52-225.544994             +0.0000
iter:  30  09:29:27 -10.32  -5.82    -3.91-225.544994             +0.0000
iter:  31  09:29:54 -10.63  -5.92    -3.77-225.544994             +0.0000
iter:  32  09:30:21 -10.73  -6.01    -3.94-225.544994             +0.0000
iter:  33  09:30:47 -11.50  -6.05    -4.64-225.544994             +0.0000
iter:  34  09:31:14 -11.11  -6.08    -4.22-225.544994             +0.0000
iter:  35  09:31:41 -10.52  -6.12    -4.24-225.544994             +0.0000
iter:  36  09:32:07 -10.34  -6.20    -4.02-225.544994             +0.0000
iter:  37  09:32:34 -11.91  -6.66    -5.04-225.544994             +0.0000
iter:  38  09:33:01 -10.84  -6.75    -4.71-225.544994             +0.0000
iter:  39  09:33:28 -11.84  -6.91    -4.95-225.544994             +0.0000
iter:  40  09:33:54 -12.99  -7.21    -5.28-225.544994             +0.0000
iter:  41  09:34:21 -12.97  -7.26    -5.13-225.544994             +0.0000
iter:  42  09:34:48 -12.58  -7.42    -5.13-225.544994             +0.0000
iter:  43  09:35:15 -13.14  -7.32    -5.37-225.544994             +0.0000
iter:  44  09:35:41 -13.72  -7.80    -5.92-225.544994             +0.0000
iter:  45  09:36:08 -13.62  -7.86    -5.94-225.544994             +0.0000
iter:  46  09:36:35 -14.80  -7.86    -6.35-225.544994             +0.0000

Converged after 46 iterations.

Dipole moment: (13.160083, 1.740928, -5.512643) |e|*Ang

Total magnetic moment: (0.000000, 0.000000, 0.000000)
Local magnetic moments:
   0 O  ( 0.000000,  0.000000,  0.001160)
   1 O  ( 0.000000,  0.000000, -0.001043)
   2 O  ( 0.000000,  0.000000, -0.001047)
   3 O  ( 0.000000,  0.000000,  0.001043)
   4 O  ( 0.000000,  0.000000, -0.001077)
   5 O  ( 0.000000,  0.000000,  0.001053)
   6 O  ( 0.000000,  0.000000,  0.000958)
   7 O  ( 0.000000,  0.000000, -0.001056)
   8 O  ( 0.000000,  0.000000,  0.019779)
   9 O  ( 0.000000,  0.000000, -0.019776)
  10 O  ( 0.000000,  0.000000, -0.019779)
  11 O  ( 0.000000,  0.000000,  0.019777)
  12 Mn ( 0.000000,  0.000000,  4.601518)
  13 Mn ( 0.000000,  0.000000, -4.601582)
  14 Mn ( 0.000000,  0.000000, -4.601524)
  15 Mn ( 0.000000,  0.000000,  4.601592)
  16 P  ( 0.000000,  0.000000,  0.001301)
  17 P  ( 0.000000,  0.000000, -0.001293)
  18 P  ( 0.000000,  0.000000, -0.001300)
  19 P  ( 0.000000,  0.000000,  0.001293)
  20 O  ( 0.000000,  0.000000,  0.018072)
  21 O  ( 0.000000,  0.000000, -0.018068)
  22 O  ( 0.000000,  0.000000, -0.018072)
  23 O  ( 0.000000,  0.000000,  0.018068)
  24 Li ( 0.000000,  0.000000, -0.000000)
  25 Li ( 0.000000,  0.000000, -0.000003)
  26 Li ( 0.000000,  0.000000,  0.000000)
  27 Li ( 0.000000,  0.000000,  0.000004)

Energy contributions relative to reference atoms: (reference = -196157.275402)

Kinetic:       +242.954749
Potential:     -215.448019
External:        +0.000000
XC:            -254.966996
Entropy (-ST):   -0.000000
Local:           +1.915272
Free energy:   -225.544994
Extrapolated:  -225.544994

Spin contamination: 9.747492 electrons
Showing only first 2 kpts
                      Up                     Down
 Kpt  Band  Eigenvalues  Occupancy  Eigenvalues  Occupancy
  0    88      3.92284    0.00694      3.92319    0.00694
  0    89      3.97197    0.00694      3.97157    0.00694
  0    90      8.66734    0.00000      8.66738    0.00000
  0    91      8.68679    0.00000      8.68681    0.00000

  1    88      3.91978    0.00694      3.91947    0.00694
  1    89      3.97556    0.00694      3.97557    0.00694
  1    90      8.51304    0.00000      8.51308    0.00000
  1    91      8.52952    0.00000      8.52962    0.00000

Fermi level: 5.31841

Gap: 3.778 eV
Transition (v -> c):
  (s=0, k=73, n=89, [0.08, -0.42, -0.12]) -> (s=1, k=62, n=90, [-0.08, 0.08, 0.12])
Writing to born-0.01-16y+.gpw (mode='all')