User:   madkru@g031.nifl.fysik.dtu.dk
Date:   Mon Mar 22 22:54:24 2021
Arch:   x86_64
Pid:    47913
Python: 3.7.4
gpaw:   /home/niflheim/madkru/venv_folder/gpaw/gpaw (d0d1ca1c71)
_gpaw:  /home/niflheim/madkru/venv_folder/gpaw/build/lib.linux-x86_64-sandybridge-3.7/
        _gpaw.cpython-37m-x86_64-linux-gnu.so (4fd39e8b1e)
ase:    /home/niflheim/madkru/venv_folder/ase/ase (version 3.21.0b1-7e6c206a91)
numpy:  /home/niflheim/madkru/venv_folder/lib/python3.7/site-packages/numpy (version 1.19.4)
scipy:  /home/niflheim/madkru/venv_folder/lib/python3.7/site-packages/scipy (version 1.5.4)
units:  Angstrom and eV
cores: 32
OMP_NUM_THREADS: 1

Input parameters:
  convergence: {bands: occupied,
                density: 0.0001,
                eigenstates: 4e-08,
                energy: 0.0005,
                forces: 1e-06}
  kpts: [6 6 4]
  mode: {ecut: 600.0,
         gammacentered: False,
         name: pw}
  occupations: {fixmagmom: False,
                name: fermi-dirac,
                width: 0.001}
  setups: {Mn: :d,3.0}
  symmetry: {point_group: False,
             time_reversal: False}

System changes: positions, numbers, cell, pbc, initial_charges, initial_magmoms

Initialize ...

O-setup:
  name: Oxygen
  id: 9b9d51c344dea68c822856295a461509
  Z: 8.0
  valence: 6
  core: 2
  charge: 0.0
  file: /home/modules/software/GPAW-setups/0.9.20000/O.LDA.gz
  compensation charges: gauss, rc=0.21, lmax=2
  cutoffs: 1.17(filt), 0.83(core),
  valence states:
                energy  radius
    2s(2.00)   -23.752   0.688
    2p(4.00)    -9.195   0.598
    *s           3.459   0.688
    *p          18.016   0.598
    *d           0.000   0.619

  Using partial waves for O as LCAO basis

Mn-setup:
  name: Manganese
  id: 0d715a8018be061a6e9ea6f2d364ac92
  Z: 25.0
  valence: 15
  core: 10
  charge: 0.0
  Hubbard U: 3.000000 eV (l=2, scale=True)
  file: /home/modules/software/GPAW-setups/0.9.20000/Mn.LDA.gz
  compensation charges: gauss, rc=0.38, lmax=2
  cutoffs: 2.14(filt), 0.86(core),
  valence states:
                energy  radius
    3s(2.00)   -85.387   1.275
    4s(2.00)    -5.282   1.275
    3p(6.00)   -54.493   1.281
    4p(0.00)    -1.471   1.281
    3d(5.00)    -7.009   1.138
    *d          20.203   1.138

[...]

P-setup:
  name: Phosphorus
  id: a5561c299094968922a179ab894d2e2d
  Z: 15.0
  valence: 5
  core: 10
  charge: 0.0
  file: /home/modules/software/GPAW-setups/0.9.20000/P.LDA.gz
  compensation charges: gauss, rc=0.30, lmax=2
  cutoffs: 1.69(filt), 1.81(core),
  valence states:
                energy  radius
    3s(2.00)   -14.015   0.953
    3p(3.00)    -5.596   0.953
    *s          13.197   0.953
    *p          21.615   0.953
    *d           0.000   0.953

[...]

Li-setup:
  name: Lithium
  id: b73562207f97a71b6967473b66fe8b65
  Z: 3.0
  valence: 1
  core: 2
  charge: 0.0
  file: /home/modules/software/GPAW-setups/0.9.20000/Li.LDA.gz
  compensation charges: gauss, rc=0.33, lmax=2
  cutoffs: 1.91(filt), 2.55(core),
  valence states:
                energy  radius
    2s(1.00)    -2.874   1.058
    2p(0.00)    -1.126   1.058
    *s          24.338   1.058

  Using partial waves for Li as LCAO basis

Reference energy: -196157.275402

Spin-polarized calculation.
Magnetic moment: 0.000000

Convergence criteria:
  Maximum total energy change: 0.0005 eV / electron
  Maximum integral of absolute density change: 0.0001 electrons
  Maximum integral of absolute eigenstate change: 4e-08 eV^2
  Maximum change in atomic force: 1e-06 eV / Ang
  Maximum number of iterations: 333

Symmetries present (total): 1

  ( 1  0  0)
  ( 0  1  0)
  ( 0  0  1)

144 k-points: 6 x 6 x 4 Monkhorst-Pack grid
144 k-points in the irreducible part of the Brillouin zone
       k-points in crystal coordinates                weights
   0:    -0.41666667   -0.41666667   -0.37500000          1/144
   1:    -0.41666667   -0.41666667   -0.12500000          1/144
   2:    -0.41666667   -0.41666667    0.12500000          1/144
   3:    -0.41666667   -0.41666667    0.37500000          1/144
   4:    -0.41666667   -0.25000000   -0.37500000          1/144
   5:    -0.41666667   -0.25000000   -0.12500000          1/144
   6:    -0.41666667   -0.25000000    0.12500000          1/144
   7:    -0.41666667   -0.25000000    0.37500000          1/144
   8:    -0.41666667   -0.08333333   -0.37500000          1/144
   9:    -0.41666667   -0.08333333   -0.12500000          1/144
          ...
 143:     0.41666667    0.41666667    0.37500000          1/144

Wave functions: Plane wave expansion
  Cutoff energy: 600.000 eV
  Number of coefficients (min, max): 10068, 10125
  Pulay-stress correction: 0.000000 eV/Ang^3 (de/decut=0.000000)
  Using FFTW library
  ScaLapack parameters: grid=1x1, blocksize=None
  Wavefunction extrapolation:
    Improved wavefunction reuse through dual PAW basis

  Fermi-Dirac: width=0.0010 eV

Eigensolver
   Davidson(niter=2, smin=None, normalize=True)

Densities:
  Coarse grid: 60*35*27 grid
  Fine grid: 120*70*54 grid
  Total Charge: 0.000000

Density mixing:
  Method: difference
  Backend: pulay
  Linear mixing parameter: 0.05
  Mixing with 5 old densities
  Damping of long wave oscillations: 50

Hamiltonian:
  XC and Coulomb potentials evaluated on a 120*70*54 grid
  Using the LDA Exchange-Correlation functional

Total number of cores used: 32
Parallelization over k-points: 16
Domain decomposition: 2 x 1 x 1

Number of atoms: 28
Number of atomic orbitals: 148
Number of bands in calculation: 112
Number of valence electrons: 180
Bands to converge: occupied

... initialized

Initializing position-dependent things.

Density initialized from atomic densities
Creating initial wave functions:
  112 bands from LCAO basis set

    /|         OP              |
   / |O            O        O  |
  /  |       O            O  P |
 *   |O    Mn      O           |
 |   |          OLi          O |
 |   P--O--------------Mn------.
 |  /          Li    O  Mn  O /
 | /LiO           PO         /
 |/       Mn                /
 *Li-----------------------*

Positions:
   0 O     -1.330281   -2.539252   -1.168500    ( 0.0000,  0.0000,  0.0000)
   1 O     -3.152392    2.974909    1.200956    ( 0.0000,  0.0000,  0.0000)
   2 O      2.077234    0.510133    1.506966    ( 0.0000,  0.0000,  0.0000)
   3 O      3.899724   -0.074476   -0.862491    ( 0.0000,  0.0000,  0.0000)
   4 O      2.077424    2.974966    1.507072    ( 0.0000,  0.0000,  0.0000)
   5 O      3.899535   -2.539195   -0.862384    ( 0.0000,  0.0000,  0.0000)
   6 O     -1.330092   -0.074418   -1.168395    ( 0.0000,  0.0000,  0.0000)
   7 O     -3.152581    0.510191    1.201063    ( 0.0000,  0.0000,  0.0000)
   8 O     -4.389675   -1.306969   -0.813152    ( 0.0000,  0.0000,  0.0000)
   9 O     -0.083301    1.742683    1.556268    ( 0.0000,  0.0000,  0.0000)
  10 O      5.136817    1.742683    1.151723    ( 0.0000,  0.0000,  0.0000)
  11 O      0.840444   -1.306969   -1.217697    ( 0.0000,  0.0000,  0.0000)
  12 Mn    -2.557192   -1.307258    0.273595    ( 0.0000,  0.0000,  1.0000)
  13 Mn    -1.925535    1.742972   -2.096623    ( 0.0000,  0.0000, -1.0000)
  14 Mn     3.304335    1.742972    0.064976    ( 0.0000,  0.0000, -1.0000)
  15 Mn     2.672678   -1.307258    2.435195    ( 0.0000,  0.0000,  1.0000)
  16 P     -0.597175   -1.306854   -1.801474    ( 0.0000,  0.0000,  0.0000)
  17 P     -3.885565    1.742568    0.568028    ( 0.0000,  0.0000,  0.0000)
  18 P      1.344318    1.742568    2.140045    ( 0.0000,  0.0000,  0.0000)
  19 P      4.632708   -1.306854   -0.229456    ( 0.0000,  0.0000,  0.0000)
  20 O     -0.636957   -1.306861    1.403074    ( 0.0000,  0.0000,  0.0000)
  21 O     -3.845824    1.742575   -0.967462    ( 0.0000,  0.0000,  0.0000)
  22 O      1.384100    1.742576   -1.064503    ( 0.0000,  0.0000,  0.0000)
  23 O      4.592967   -1.306861    1.306033    ( 0.0000,  0.0000,  0.0000)
  24 Li    -4.856429   -2.832143   -2.200714    ( 0.0000,  0.0000,  0.0000)
  25 Li     0.373571   -2.832143    0.169286    ( 0.0000,  0.0000,  0.0000)
  26 Li    -4.856429    0.217857   -2.200714    ( 0.0000,  0.0000,  0.0000)
  27 Li     0.373571    0.217857    0.169286    ( 0.0000,  0.0000,  0.0000)

Unit cell:
           periodic     x           y           z      points  spacing
  1. axis:    yes   10.460000    0.000000    0.000000    60     0.1743
  2. axis:    yes    0.000000    6.100000    0.000000    35     0.1743
  3. axis:    yes    0.000000    0.000000    4.740000    27     0.1756

  Lengths:  10.460000   6.100000   4.740000
  Angles:   90.000000  90.000000  90.000000

Effective grid spacing dv^(1/3) = 0.1747

                     log10-error:           total        iterations:
           time      wfs    density  force  energy       poisson  magmom
iter:   1  22:57:24                       -220.696316             +0.0000
iter:   2  22:58:04  -0.64  -0.92         -235.516470             +0.0000
iter:   3  22:58:43  -0.40  -0.96         -226.167541             -0.0000
iter:   4  22:59:22  -1.41  -1.29         -225.885947             +0.0000
iter:   5  23:00:02  -1.19  -1.38         -227.592421             +0.0000
iter:   6  23:00:41  -1.39  -1.51         -225.827471             +0.0000
iter:   7  23:01:20  -2.57  -2.06         -225.899841             +0.0000
iter:   8  23:02:00  -2.23  -2.01         -225.633623             -0.0000
iter:   9  23:02:39  -2.69  -2.10         -225.545056             +0.0000
iter:  10  23:03:19  -3.56  -2.95         -225.544730             +0.0000
iter:  11  23:03:58  -3.95  -2.99         -225.545768             +0.0000
iter:  12  23:04:37  -4.31  -3.23         -225.545909             +0.0000
iter:  13  23:05:17  -5.46  -3.37         -225.545817             -0.0000
iter:  14  23:05:56  -5.28  -3.44         -225.545664             -0.0000
iter:  15  23:06:36  -5.51  -3.61         -225.545619             -0.0000
iter:  16  23:07:15  -6.39  -3.66         -225.545593             +0.0000
iter:  17  23:07:54  -6.02  -3.72         -225.545617             -0.0000
iter:  18  23:08:34  -6.53  -3.79         -225.545615             -0.0000
iter:  19  23:09:13  -6.23  -3.83         -225.545571             -0.0000
iter:  20  23:09:53  -6.79  -4.05         -225.545567             -0.0000
iter:  21  23:10:32  -6.17  -4.18         -225.545579             +0.0000
iter:  22  23:11:11  -6.72  -4.43         -225.545564             -0.0000
iter:  23  23:12:01  -7.55  -4.68         -225.545570             -0.0000
iter:  24  23:12:51  -8.29  -4.74    -3.38-225.545568             -0.0000
iter:  25  23:13:41  -7.62  -4.79    -2.93-225.545566             -0.0000
iter:  26  23:14:31  -7.79  -4.96    -2.98-225.545566             -0.0000
iter:  27  23:15:21  -8.25  -5.04    -2.93-225.545566             -0.0000
iter:  28  23:16:11  -8.64  -5.38    -3.42-225.545566             -0.0000
iter:  29  23:17:01  -9.37  -5.46    -3.67-225.545566             -0.0000
iter:  30  23:17:51 -10.09  -5.54    -3.79-225.545566             -0.0000
iter:  31  23:18:41  -8.82  -5.61    -3.14-225.545566             -0.0000
iter:  32  23:19:31 -10.18  -5.86    -3.94-225.545566             +0.0000
iter:  33  23:20:21 -10.36  -5.97    -4.08-225.545566             +0.0000
iter:  34  23:21:11 -11.09  -6.01    -4.18-225.545566             +0.0000
iter:  35  23:22:01 -10.56  -6.02    -4.07-225.545566             +0.0000
iter:  36  23:22:52 -10.52  -6.12    -4.21-225.545566             -0.0000
iter:  37  23:23:42 -10.21  -6.18    -3.87-225.545566             -0.0000
iter:  38  23:24:32 -11.08  -6.32    -4.03-225.545566             -0.0000
iter:  39  23:25:21 -11.63  -6.61    -4.91-225.545566             -0.0000
iter:  40  23:26:11 -11.48  -6.69    -4.09-225.545566             -0.0000
iter:  41  23:27:02 -11.60  -6.82    -4.45-225.545566             -0.0000
iter:  42  23:27:52 -12.57  -7.16    -4.96-225.545566             -0.0000
iter:  43  23:28:42 -13.41  -7.31    -5.87-225.545566             -0.0000
iter:  44  23:29:32 -13.04  -7.33    -5.07-225.545566             -0.0000
iter:  45  23:30:22 -12.48  -7.45    -4.98-225.545566             -0.0000
iter:  46  23:31:12 -14.00  -7.63    -5.91-225.545566             -0.0000
iter:  47  23:32:02 -13.94  -7.67    -5.71-225.545566             -0.0000
iter:  48  23:32:51 -13.99  -7.88    -5.61-225.545566             -0.0000
iter:  49  23:33:41 -15.02  -8.02    -6.43-225.545566             -0.0000

Converged after 49 iterations.

Dipole moment: (12.461978, 1.714348, -5.513127) |e|*Ang

Total magnetic moment: (0.000000, 0.000000, -0.000000)
Local magnetic moments:
   0 O  ( 0.000000,  0.000000,  0.001110)
   1 O  ( 0.000000,  0.000000, -0.001054)
   2 O  ( 0.000000,  0.000000, -0.001005)
   3 O  ( 0.000000,  0.000000,  0.001043)
   4 O  ( 0.000000,  0.000000, -0.001013)
   5 O  ( 0.000000,  0.000000,  0.001051)
   6 O  ( 0.000000,  0.000000,  0.001102)
   7 O  ( 0.000000,  0.000000, -0.001046)
   8 O  ( 0.000000,  0.000000,  0.019820)
   9 O  ( 0.000000,  0.000000, -0.019548)
  10 O  ( 0.000000,  0.000000, -0.019731)
  11 O  ( 0.000000,  0.000000,  0.019741)
  12 Mn ( 0.000000,  0.000000,  4.601541)
  13 Mn ( 0.000000,  0.000000, -4.602346)
  14 Mn ( 0.000000,  0.000000, -4.601512)
  15 Mn ( 0.000000,  0.000000,  4.601587)
  16 P  ( 0.000000,  0.000000,  0.001323)
  17 P  ( 0.000000,  0.000000, -0.001290)
  18 P  ( 0.000000,  0.000000, -0.001175)
  19 P  ( 0.000000,  0.000000,  0.001286)
  20 O  ( 0.000000,  0.000000,  0.018070)
  21 O  ( 0.000000,  0.000000, -0.018188)
  22 O  ( 0.000000,  0.000000, -0.018098)
  23 O  ( 0.000000,  0.000000,  0.018074)
  24 Li ( 0.000000,  0.000000,  0.000000)
  25 Li ( 0.000000,  0.000000,  0.000018)
  26 Li ( 0.000000,  0.000000,  0.000000)
  27 Li ( 0.000000,  0.000000,  0.000018)

Energy contributions relative to reference atoms: (reference = -196157.275402)

Kinetic:       +243.586298
Potential:     -215.939357
External:        +0.000000
XC:            -255.106482
Entropy (-ST):   -0.000000
Local:           +1.913975
Free energy:   -225.545566
Extrapolated:  -225.545566

Spin contamination: 9.747583 electrons
Showing only first 2 kpts
                      Up                     Down
 Kpt  Band  Eigenvalues  Occupancy  Eigenvalues  Occupancy
  0    88      3.92330    0.00694      3.90409    0.00694
  0    89      3.97400    0.00694      3.96844    0.00694
  0    90      8.66077    0.00000      8.66342    0.00000
  0    91      8.68262    0.00000      8.69424    0.00000

  1    88      3.91991    0.00694      3.90019    0.00694
  1    89      3.97765    0.00694      3.97124    0.00694
  1    90      8.50408    0.00000      8.50887    0.00000
  1    91      8.52908    0.00000      8.53660    0.00000

Fermi level: 5.31835

Gap: 3.777 eV
Transition (v -> c):
  (s=0, k=70, n=89, [-0.08, 0.42, 0.12]) -> (s=1, k=86, n=90, [0.08, 0.08, 0.12])
Writing to born-0.01-9x+.gpw (mode='all')