User:   madkru@g006.nifl.fysik.dtu.dk
Date:   Thu Mar 25 02:08:03 2021
Arch:   x86_64
Pid:    12017
Python: 3.7.4
gpaw:   /home/niflheim/madkru/venv_folder/gpaw/gpaw (d224efde0f)
_gpaw:  /home/niflheim/madkru/venv_folder/gpaw/build/lib.linux-x86_64-sandybridge-3.7/
        _gpaw.cpython-37m-x86_64-linux-gnu.so (4fd39e8b1e)
ase:    /home/niflheim/madkru/venv_folder/ase/ase (version 3.21.0b1-4d5a73cb29)
numpy:  /home/niflheim/madkru/venv_folder/lib/python3.7/site-packages/numpy (version 1.19.4)
scipy:  /home/niflheim/madkru/venv_folder/lib/python3.7/site-packages/scipy (version 1.5.4)
units:  Angstrom and eV
cores: 64
OMP_NUM_THREADS: 1

Input parameters:
  convergence: {bands: occupied,
                density: 0.0001,
                eigenstates: 4e-08,
                energy: 0.0005,
                forces: 1e-06}
  kpts: [6 6 4]
  mode: {ecut: 600.0,
         gammacentered: False,
         name: pw}
  occupations: {fixmagmom: False,
                name: fermi-dirac,
                width: 0.001}
  setups: {Mn: :d,3.0}
  symmetry: {point_group: False,
             time_reversal: False}

System changes: positions, numbers, cell, pbc, initial_charges, initial_magmoms

Initialize ...

O-setup:
  name: Oxygen
  id: 9b9d51c344dea68c822856295a461509
  Z: 8.0
  valence: 6
  core: 2
  charge: 0.0
  file: /home/modules/software/GPAW-setups/0.9.20000/O.LDA.gz
  compensation charges: gauss, rc=0.21, lmax=2
  cutoffs: 1.17(filt), 0.83(core),
  valence states:
                energy  radius
    2s(2.00)   -23.752   0.688
    2p(4.00)    -9.195   0.598
    *s           3.459   0.688
    *p          18.016   0.598
    *d           0.000   0.619

  Using partial waves for O as LCAO basis

Mn-setup:
  name: Manganese
  id: 0d715a8018be061a6e9ea6f2d364ac92
  Z: 25.0
  valence: 15
  core: 10
  charge: 0.0
  Hubbard U: 3.000000 eV (l=2, scale=True)
  file: /home/modules/software/GPAW-setups/0.9.20000/Mn.LDA.gz
  compensation charges: gauss, rc=0.38, lmax=2
  cutoffs: 2.14(filt), 0.86(core),
  valence states:
                energy  radius
    3s(2.00)   -85.387   1.275
    4s(2.00)    -5.282   1.275
    3p(6.00)   -54.493   1.281
    4p(0.00)    -1.471   1.281
    3d(5.00)    -7.009   1.138
    *d          20.203   1.138

[...]

P-setup:
  name: Phosphorus
  id: a5561c299094968922a179ab894d2e2d
  Z: 15.0
  valence: 5
  core: 10
  charge: 0.0
  file: /home/modules/software/GPAW-setups/0.9.20000/P.LDA.gz
  compensation charges: gauss, rc=0.30, lmax=2
  cutoffs: 1.69(filt), 1.81(core),
  valence states:
                energy  radius
    3s(2.00)   -14.015   0.953
    3p(3.00)    -5.596   0.953
    *s          13.197   0.953
    *p          21.615   0.953
    *d           0.000   0.953

[...]

Li-setup:
  name: Lithium
  id: b73562207f97a71b6967473b66fe8b65
  Z: 3.0
  valence: 1
  core: 2
  charge: 0.0
  file: /home/modules/software/GPAW-setups/0.9.20000/Li.LDA.gz
  compensation charges: gauss, rc=0.33, lmax=2
  cutoffs: 1.91(filt), 2.55(core),
  valence states:
                energy  radius
    2s(1.00)    -2.874   1.058
    2p(0.00)    -1.126   1.058
    *s          24.338   1.058

  Using partial waves for Li as LCAO basis

Reference energy: -196157.275402

Spin-polarized calculation.
Magnetic moment: 0.000000

Convergence criteria:
  Maximum total energy change: 0.0005 eV / electron
  Maximum integral of absolute density change: 0.0001 electrons
  Maximum integral of absolute eigenstate change: 4e-08 eV^2
  Maximum change in atomic force: 1e-06 eV / Ang
  Maximum number of iterations: 333

Symmetries present (total): 1

  ( 1  0  0)
  ( 0  1  0)
  ( 0  0  1)

144 k-points: 6 x 6 x 4 Monkhorst-Pack grid
144 k-points in the irreducible part of the Brillouin zone
       k-points in crystal coordinates                weights
   0:    -0.41666667   -0.41666667   -0.37500000          1/144
   1:    -0.41666667   -0.41666667   -0.12500000          1/144
   2:    -0.41666667   -0.41666667    0.12500000          1/144
   3:    -0.41666667   -0.41666667    0.37500000          1/144
   4:    -0.41666667   -0.25000000   -0.37500000          1/144
   5:    -0.41666667   -0.25000000   -0.12500000          1/144
   6:    -0.41666667   -0.25000000    0.12500000          1/144
   7:    -0.41666667   -0.25000000    0.37500000          1/144
   8:    -0.41666667   -0.08333333   -0.37500000          1/144
   9:    -0.41666667   -0.08333333   -0.12500000          1/144
          ...
 143:     0.41666667    0.41666667    0.37500000          1/144

Wave functions: Plane wave expansion
  Cutoff energy: 600.000 eV
  Number of coefficients (min, max): 10068, 10125
  Pulay-stress correction: 0.000000 eV/Ang^3 (de/decut=0.000000)
  Using FFTW library
  ScaLapack parameters: grid=1x1, blocksize=None
  Wavefunction extrapolation:
    Improved wavefunction reuse through dual PAW basis

  Fermi-Dirac: width=0.0010 eV

Eigensolver
   Davidson(niter=2, smin=None, normalize=True)

Densities:
  Coarse grid: 60*35*27 grid
  Fine grid: 120*70*54 grid
  Total Charge: 0.000000

Density mixing:
  Method: difference
  Backend: pulay
  Linear mixing parameter: 0.05
  Mixing with 5 old densities
  Damping of long wave oscillations: 50

Hamiltonian:
  XC and Coulomb potentials evaluated on a 120*70*54 grid
  Using the LDA Exchange-Correlation functional

Total number of cores used: 64
Parallelization over k-points: 16
Domain decomposition: 2 x 2 x 1

Number of atoms: 28
Number of atomic orbitals: 148
Number of bands in calculation: 112
Number of valence electrons: 180
Bands to converge: occupied

... initialized

Initializing position-dependent things.

Density initialized from atomic densities
Creating initial wave functions:
  112 bands from LCAO basis set

    /|         OP              |
   / |O            O        O  |
  /  |       O            O  P |
 *   |O    Mn      O           |
 |   |          OLi          O |
 |   P--O--------------Mn------.
 |  /          Li    O  Mn  O /
 | /LiO           PO         /
 |/       Mn                /
 *Li-----------------------*

Positions:
   0 O     -1.330281   -2.539252   -1.168500    ( 0.0000,  0.0000,  0.0000)
   1 O     -3.152392    2.974909    1.200956    ( 0.0000,  0.0000,  0.0000)
   2 O      2.077234    0.510133    1.506966    ( 0.0000,  0.0000,  0.0000)
   3 O      3.899724   -0.074476   -0.862491    ( 0.0000,  0.0000,  0.0000)
   4 O      2.077424    2.974966    1.507072    ( 0.0000,  0.0000,  0.0000)
   5 O      3.899535   -2.539195   -0.862384    ( 0.0000,  0.0000,  0.0000)
   6 O     -1.330092   -0.074418   -1.168395    ( 0.0000,  0.0000,  0.0000)
   7 O     -3.152581    0.510191    1.201063    ( 0.0000,  0.0000,  0.0000)
   8 O     -4.389675   -1.306969   -0.813152    ( 0.0000,  0.0000,  0.0000)
   9 O     -0.093301    1.742683    1.556268    ( 0.0000,  0.0000,  0.0000)
  10 O      5.136817    1.742683    1.151723    ( 0.0000,  0.0000,  0.0000)
  11 O      0.840444   -1.306969   -1.217697    ( 0.0000,  0.0000,  0.0000)
  12 Mn    -2.557192   -1.307258    0.273595    ( 0.0000,  0.0000,  1.0000)
  13 Mn    -1.925535    1.742972   -2.096623    ( 0.0000,  0.0000, -1.0000)
  14 Mn     3.304335    1.742972    0.064976    ( 0.0000,  0.0000, -1.0000)
  15 Mn     2.672678   -1.307258    2.435195    ( 0.0000,  0.0000,  1.0000)
  16 P     -0.597175   -1.306854   -1.801474    ( 0.0000,  0.0000,  0.0000)
  17 P     -3.885565    1.742568    0.568028    ( 0.0000,  0.0000,  0.0000)
  18 P      1.344318    1.742568    2.140045    ( 0.0000,  0.0000,  0.0000)
  19 P      4.632708   -1.306854   -0.229456    ( 0.0000,  0.0000,  0.0000)
  20 O     -0.636957   -1.306861    1.403074    ( 0.0000,  0.0000,  0.0000)
  21 O     -3.845824    1.742575   -0.967462    ( 0.0000,  0.0000,  0.0000)
  22 O      1.394100    1.742576   -1.064503    ( 0.0000,  0.0000,  0.0000)
  23 O      4.592967   -1.306861    1.306033    ( 0.0000,  0.0000,  0.0000)
  24 Li    -4.856429   -2.832143   -2.200714    ( 0.0000,  0.0000,  0.0000)
  25 Li     0.373571   -2.832143    0.169286    ( 0.0000,  0.0000,  0.0000)
  26 Li    -4.856429    0.217857   -2.200714    ( 0.0000,  0.0000,  0.0000)
  27 Li     0.373571    0.217857    0.169286    ( 0.0000,  0.0000,  0.0000)

Unit cell:
           periodic     x           y           z      points  spacing
  1. axis:    yes   10.460000    0.000000    0.000000    60     0.1743
  2. axis:    yes    0.000000    6.100000    0.000000    35     0.1743
  3. axis:    yes    0.000000    0.000000    4.740000    27     0.1756

  Lengths:  10.460000   6.100000   4.740000
  Angles:   90.000000  90.000000  90.000000

Effective grid spacing dv^(1/3) = 0.1747

                     log10-error:           total        iterations:
           time      wfs    density  force  energy       poisson  magmom
iter:   1  02:09:38                       -220.684828             +0.0000
iter:   2  02:09:59  -0.64  -0.92         -235.497641             +0.0000
iter:   3  02:10:20  -0.40  -0.96         -226.168234             -0.0000
iter:   4  02:10:42  -1.41  -1.29         -225.887969             +0.0000
iter:   5  02:11:03  -1.19  -1.38         -227.589259             +0.0000
iter:   6  02:11:25  -1.39  -1.51         -225.828710             +0.0000
iter:   7  02:11:46  -2.57  -2.06         -225.899073             +0.0000
iter:   8  02:12:07  -2.23  -2.01         -225.640135             -0.0000
iter:   9  02:12:29  -2.68  -2.09         -225.546701             +0.0000
iter:  10  02:12:50  -3.56  -2.95         -225.546032             +0.0000
iter:  11  02:13:12  -3.95  -3.00         -225.547400             +0.0000
iter:  12  02:13:33  -4.29  -3.22         -225.547591             +0.0000
iter:  13  02:13:54  -5.37  -3.36         -225.547478             -0.0000
iter:  14  02:14:16  -5.19  -3.44         -225.547318             -0.0000
iter:  15  02:14:37  -5.37  -3.60         -225.547236             -0.0000
iter:  16  02:14:59  -6.29  -3.68         -225.547224             +0.0000
iter:  17  02:15:20  -6.23  -3.75         -225.547243             -0.0000
iter:  18  02:15:41  -6.78  -3.81         -225.547243             -0.0000
iter:  19  02:16:03  -5.82  -3.83         -225.547207             -0.0000
iter:  20  02:16:24  -6.85  -4.40         -225.547207             -0.0000
iter:  21  02:16:46  -6.89  -4.66         -225.547199             -0.0000
iter:  22  02:17:12  -7.63  -4.82         -225.547199             -0.0000
iter:  23  02:17:39  -8.33  -5.03    -2.82-225.547199             +0.0000
iter:  24  02:18:06  -9.04  -5.38    -3.62-225.547199             -0.0000
iter:  25  02:18:33  -8.97  -5.46    -2.93-225.547199             -0.0000
iter:  26  02:19:00  -9.36  -5.58    -3.64-225.547199             -0.0000
iter:  27  02:19:26  -9.61  -5.62    -3.46-225.547199             -0.0000
iter:  28  02:19:53  -9.75  -5.70    -3.42-225.547199             -0.0000
iter:  29  02:20:20  -9.70  -5.76    -3.57-225.547199             -0.0000
iter:  30  02:20:47 -11.01  -5.86    -4.58-225.547199             -0.0000
iter:  31  02:21:14  -9.31  -5.89    -3.85-225.547199             +0.0000
iter:  32  02:21:41 -10.63  -6.22    -4.21-225.547199             -0.0000
iter:  33  02:22:07 -11.63  -6.28    -4.35-225.547199             -0.0000
iter:  34  02:22:34 -10.98  -6.33    -4.29-225.547199             -0.0000
iter:  35  02:23:01 -11.68  -6.43    -4.60-225.547199             -0.0000
iter:  36  02:23:28 -11.76  -6.49    -4.40-225.547199             -0.0000
iter:  37  02:23:55 -11.52  -6.53    -4.30-225.547199             -0.0000
iter:  38  02:24:21 -11.77  -6.73    -4.42-225.547199             -0.0000
iter:  39  02:24:48 -12.67  -7.19    -5.53-225.547199             -0.0000
iter:  40  02:25:15 -12.50  -7.23    -4.84-225.547199             +0.0000
iter:  41  02:25:42 -12.77  -7.39    -5.26-225.547199             -0.0000
iter:  42  02:26:08 -13.87  -7.53    -5.68-225.547199             -0.0000
iter:  43  02:26:35 -13.81  -7.62    -5.62-225.547199             -0.0000
iter:  44  02:27:02 -13.59  -7.75    -5.70-225.547199             +0.0000
iter:  45  02:27:29 -13.66  -8.06    -5.93-225.547199             -0.0000
iter:  46  02:27:56 -14.41  -8.32    -6.29-225.547199             -0.0000

Converged after 46 iterations.

Dipole moment: (13.161739, 1.714233, -5.512223) |e|*Ang

Total magnetic moment: (0.000000, 0.000000, -0.000000)
Local magnetic moments:
   0 O  ( 0.000000,  0.000000,  0.001035)
   1 O  ( 0.000000,  0.000000, -0.001062)
   2 O  ( 0.000000,  0.000000, -0.001063)
   3 O  ( 0.000000,  0.000000,  0.000992)
   4 O  ( 0.000000,  0.000000, -0.001071)
   5 O  ( 0.000000,  0.000000,  0.001001)
   6 O  ( 0.000000,  0.000000,  0.001027)
   7 O  ( 0.000000,  0.000000, -0.001054)
   8 O  ( 0.000000,  0.000000,  0.019801)
   9 O  ( 0.000000,  0.000000, -0.019802)
  10 O  ( 0.000000,  0.000000, -0.019679)
  11 O  ( 0.000000,  0.000000,  0.019735)
  12 Mn ( 0.000000,  0.000000,  4.601522)
  13 Mn ( 0.000000,  0.000000, -4.601540)
  14 Mn ( 0.000000,  0.000000, -4.601197)
  15 Mn ( 0.000000,  0.000000,  4.601597)
  16 P  ( 0.000000,  0.000000,  0.001302)
  17 P  ( 0.000000,  0.000000, -0.001296)
  18 P  ( 0.000000,  0.000000, -0.001450)
  19 P  ( 0.000000,  0.000000,  0.001271)
  20 O  ( 0.000000,  0.000000,  0.018065)
  21 O  ( 0.000000,  0.000000, -0.018087)
  22 O  ( 0.000000,  0.000000, -0.018140)
  23 O  ( 0.000000,  0.000000,  0.018074)
  24 Li ( 0.000000,  0.000000, -0.000000)
  25 Li ( 0.000000,  0.000000, -0.000002)
  26 Li ( 0.000000,  0.000000, -0.000000)
  27 Li ( 0.000000,  0.000000, -0.000002)

Energy contributions relative to reference atoms: (reference = -196157.275402)

Kinetic:       +243.008358
Potential:     -215.492704
External:        +0.000000
XC:            -254.977777
Entropy (-ST):   -0.000000
Local:           +1.914923
Free energy:   -225.547199
Extrapolated:  -225.547199

Spin contamination: 9.747402 electrons
Showing only first 2 kpts
                      Up                     Down
 Kpt  Band  Eigenvalues  Occupancy  Eigenvalues  Occupancy
  0    88      3.92398    0.00694      3.92580    0.00694
  0    89      3.97279    0.00694      3.97893    0.00694
  0    90      8.67248    0.00000      8.66669    0.00000
  0    91      8.68972    0.00000      8.69014    0.00000

  1    88      3.92038    0.00694      3.92291    0.00694
  1    89      3.97651    0.00694      3.98379    0.00694
  1    90      8.51544    0.00000      8.51234    0.00000
  1    91      8.53485    0.00000      8.53275    0.00000

Fermi level: 5.32048

Gap: 3.773 eV
Transition (v -> c):
  (s=1, k=69, n=89, [-0.08, 0.42, -0.12]) -> (s=0, k=85, n=90, [0.08, 0.08, -0.12])
Writing to born-0.01-22x+.gpw (mode='all')