User:   madkru@g006.nifl.fysik.dtu.dk
Date:   Wed Mar 24 22:38:12 2021
Arch:   x86_64
Pid:    12017
Python: 3.7.4
gpaw:   /home/niflheim/madkru/venv_folder/gpaw/gpaw (d224efde0f)
_gpaw:  /home/niflheim/madkru/venv_folder/gpaw/build/lib.linux-x86_64-sandybridge-3.7/
        _gpaw.cpython-37m-x86_64-linux-gnu.so (4fd39e8b1e)
ase:    /home/niflheim/madkru/venv_folder/ase/ase (version 3.21.0b1-4d5a73cb29)
numpy:  /home/niflheim/madkru/venv_folder/lib/python3.7/site-packages/numpy (version 1.19.4)
scipy:  /home/niflheim/madkru/venv_folder/lib/python3.7/site-packages/scipy (version 1.5.4)
units:  Angstrom and eV
cores: 64
OMP_NUM_THREADS: 1

Input parameters:
  convergence: {bands: occupied,
                density: 0.0001,
                eigenstates: 4e-08,
                energy: 0.0005,
                forces: 1e-06}
  kpts: [6 6 4]
  mode: {ecut: 600.0,
         gammacentered: False,
         name: pw}
  occupations: {fixmagmom: False,
                name: fermi-dirac,
                width: 0.001}
  setups: {Mn: :d,3.0}
  symmetry: {point_group: False,
             time_reversal: False}

System changes: positions, numbers, cell, pbc, initial_charges, initial_magmoms

Initialize ...

O-setup:
  name: Oxygen
  id: 9b9d51c344dea68c822856295a461509
  Z: 8.0
  valence: 6
  core: 2
  charge: 0.0
  file: /home/modules/software/GPAW-setups/0.9.20000/O.LDA.gz
  compensation charges: gauss, rc=0.21, lmax=2
  cutoffs: 1.17(filt), 0.83(core),
  valence states:
                energy  radius
    2s(2.00)   -23.752   0.688
    2p(4.00)    -9.195   0.598
    *s           3.459   0.688
    *p          18.016   0.598
    *d           0.000   0.619

  Using partial waves for O as LCAO basis

Mn-setup:
  name: Manganese
  id: 0d715a8018be061a6e9ea6f2d364ac92
  Z: 25.0
  valence: 15
  core: 10
  charge: 0.0
  Hubbard U: 3.000000 eV (l=2, scale=True)
  file: /home/modules/software/GPAW-setups/0.9.20000/Mn.LDA.gz
  compensation charges: gauss, rc=0.38, lmax=2
  cutoffs: 2.14(filt), 0.86(core),
  valence states:
                energy  radius
    3s(2.00)   -85.387   1.275
    4s(2.00)    -5.282   1.275
    3p(6.00)   -54.493   1.281
    4p(0.00)    -1.471   1.281
    3d(5.00)    -7.009   1.138
    *d          20.203   1.138

[...]

P-setup:
  name: Phosphorus
  id: a5561c299094968922a179ab894d2e2d
  Z: 15.0
  valence: 5
  core: 10
  charge: 0.0
  file: /home/modules/software/GPAW-setups/0.9.20000/P.LDA.gz
  compensation charges: gauss, rc=0.30, lmax=2
  cutoffs: 1.69(filt), 1.81(core),
  valence states:
                energy  radius
    3s(2.00)   -14.015   0.953
    3p(3.00)    -5.596   0.953
    *s          13.197   0.953
    *p          21.615   0.953
    *d           0.000   0.953

[...]

Li-setup:
  name: Lithium
  id: b73562207f97a71b6967473b66fe8b65
  Z: 3.0
  valence: 1
  core: 2
  charge: 0.0
  file: /home/modules/software/GPAW-setups/0.9.20000/Li.LDA.gz
  compensation charges: gauss, rc=0.33, lmax=2
  cutoffs: 1.91(filt), 2.55(core),
  valence states:
                energy  radius
    2s(1.00)    -2.874   1.058
    2p(0.00)    -1.126   1.058
    *s          24.338   1.058

  Using partial waves for Li as LCAO basis

Reference energy: -196157.275402

Spin-polarized calculation.
Magnetic moment: 0.000000

Convergence criteria:
  Maximum total energy change: 0.0005 eV / electron
  Maximum integral of absolute density change: 0.0001 electrons
  Maximum integral of absolute eigenstate change: 4e-08 eV^2
  Maximum change in atomic force: 1e-06 eV / Ang
  Maximum number of iterations: 333

Symmetries present (total): 1

  ( 1  0  0)
  ( 0  1  0)
  ( 0  0  1)

144 k-points: 6 x 6 x 4 Monkhorst-Pack grid
144 k-points in the irreducible part of the Brillouin zone
       k-points in crystal coordinates                weights
   0:    -0.41666667   -0.41666667   -0.37500000          1/144
   1:    -0.41666667   -0.41666667   -0.12500000          1/144
   2:    -0.41666667   -0.41666667    0.12500000          1/144
   3:    -0.41666667   -0.41666667    0.37500000          1/144
   4:    -0.41666667   -0.25000000   -0.37500000          1/144
   5:    -0.41666667   -0.25000000   -0.12500000          1/144
   6:    -0.41666667   -0.25000000    0.12500000          1/144
   7:    -0.41666667   -0.25000000    0.37500000          1/144
   8:    -0.41666667   -0.08333333   -0.37500000          1/144
   9:    -0.41666667   -0.08333333   -0.12500000          1/144
          ...
 143:     0.41666667    0.41666667    0.37500000          1/144

Wave functions: Plane wave expansion
  Cutoff energy: 600.000 eV
  Number of coefficients (min, max): 10068, 10125
  Pulay-stress correction: 0.000000 eV/Ang^3 (de/decut=0.000000)
  Using FFTW library
  ScaLapack parameters: grid=1x1, blocksize=None
  Wavefunction extrapolation:
    Improved wavefunction reuse through dual PAW basis

  Fermi-Dirac: width=0.0010 eV

Eigensolver
   Davidson(niter=2, smin=None, normalize=True)

Densities:
  Coarse grid: 60*35*27 grid
  Fine grid: 120*70*54 grid
  Total Charge: 0.000000

Density mixing:
  Method: difference
  Backend: pulay
  Linear mixing parameter: 0.05
  Mixing with 5 old densities
  Damping of long wave oscillations: 50

Hamiltonian:
  XC and Coulomb potentials evaluated on a 120*70*54 grid
  Using the LDA Exchange-Correlation functional

Total number of cores used: 64
Parallelization over k-points: 16
Domain decomposition: 2 x 2 x 1

Number of atoms: 28
Number of atomic orbitals: 148
Number of bands in calculation: 112
Number of valence electrons: 180
Bands to converge: occupied

... initialized

Initializing position-dependent things.

Density initialized from atomic densities
Creating initial wave functions:
  112 bands from LCAO basis set

    /|         OP              |
   / |O            O        O  |
  /  |       O            O  P |
 *   |O    Mn      O           |
 |   |          OLi          O |
 |   P--O--------------Mn------.
 |  /          Li    O  Mn  O /
 | /LiO           PO         /
 |/       Mn                /
 *Li-----------------------*

Positions:
   0 O     -1.330281   -2.539252   -1.168500    ( 0.0000,  0.0000,  0.0000)
   1 O     -3.152392    2.974909    1.200956    ( 0.0000,  0.0000,  0.0000)
   2 O      2.077234    0.510133    1.506966    ( 0.0000,  0.0000,  0.0000)
   3 O      3.899724   -0.074476   -0.862491    ( 0.0000,  0.0000,  0.0000)
   4 O      2.077424    2.974966    1.507072    ( 0.0000,  0.0000,  0.0000)
   5 O      3.899535   -2.539195   -0.862384    ( 0.0000,  0.0000,  0.0000)
   6 O     -1.330092   -0.074418   -1.168395    ( 0.0000,  0.0000,  0.0000)
   7 O     -3.152581    0.510191    1.201063    ( 0.0000,  0.0000,  0.0000)
   8 O     -4.389675   -1.306969   -0.813152    ( 0.0000,  0.0000,  0.0000)
   9 O     -0.093301    1.742683    1.556268    ( 0.0000,  0.0000,  0.0000)
  10 O      5.136817    1.742683    1.151723    ( 0.0000,  0.0000,  0.0000)
  11 O      0.840444   -1.306969   -1.217697    ( 0.0000,  0.0000,  0.0000)
  12 Mn    -2.557192   -1.307258    0.273595    ( 0.0000,  0.0000,  1.0000)
  13 Mn    -1.925535    1.742972   -2.096623    ( 0.0000,  0.0000, -1.0000)
  14 Mn     3.304335    1.742972    0.064976    ( 0.0000,  0.0000, -1.0000)
  15 Mn     2.672678   -1.307258    2.435195    ( 0.0000,  0.0000,  1.0000)
  16 P     -0.597175   -1.306854   -1.801474    ( 0.0000,  0.0000,  0.0000)
  17 P     -3.885565    1.742568    0.568028    ( 0.0000,  0.0000,  0.0000)
  18 P      1.344318    1.742568    2.140045    ( 0.0000,  0.0000,  0.0000)
  19 P      4.632708   -1.306854   -0.229456    ( 0.0000,  0.0000,  0.0000)
  20 O     -0.636957   -1.306861    1.403074    ( 0.0000,  0.0000,  0.0000)
  21 O     -3.855824    1.742575   -0.967462    ( 0.0000,  0.0000,  0.0000)
  22 O      1.384100    1.742576   -1.064503    ( 0.0000,  0.0000,  0.0000)
  23 O      4.592967   -1.306861    1.306033    ( 0.0000,  0.0000,  0.0000)
  24 Li    -4.856429   -2.832143   -2.200714    ( 0.0000,  0.0000,  0.0000)
  25 Li     0.373571   -2.832143    0.169286    ( 0.0000,  0.0000,  0.0000)
  26 Li    -4.856429    0.217857   -2.200714    ( 0.0000,  0.0000,  0.0000)
  27 Li     0.373571    0.217857    0.169286    ( 0.0000,  0.0000,  0.0000)

Unit cell:
           periodic     x           y           z      points  spacing
  1. axis:    yes   10.460000    0.000000    0.000000    60     0.1743
  2. axis:    yes    0.000000    6.100000    0.000000    35     0.1743
  3. axis:    yes    0.000000    0.000000    4.740000    27     0.1756

  Lengths:  10.460000   6.100000   4.740000
  Angles:   90.000000  90.000000  90.000000

Effective grid spacing dv^(1/3) = 0.1747

                     log10-error:           total        iterations:
           time      wfs    density  force  energy       poisson  magmom
iter:   1  22:39:45                       -220.691967             +0.0000
iter:   2  22:40:06  -0.64  -0.92         -235.509824             +0.0000
iter:   3  22:40:27  -0.40  -0.96         -226.169208             -0.0000
iter:   4  22:40:49  -1.41  -1.29         -225.888307             +0.0000
iter:   5  22:41:10  -1.19  -1.38         -227.588579             +0.0000
iter:   6  22:41:32  -1.39  -1.51         -225.829297             +0.0000
iter:   7  22:41:53  -2.56  -2.06         -225.898832             +0.0000
iter:   8  22:42:14  -2.24  -2.01         -225.644024             -0.0000
iter:   9  22:42:36  -2.67  -2.08         -225.546519             +0.0000
iter:  10  22:42:57  -3.54  -2.94         -225.545619             +0.0000
iter:  11  22:43:19  -3.95  -3.00         -225.547412             +0.0000
iter:  12  22:43:40  -4.30  -3.22         -225.547573             +0.0000
iter:  13  22:44:01  -5.37  -3.36         -225.547469             -0.0000
iter:  14  22:44:23  -5.18  -3.44         -225.547334             -0.0000
iter:  15  22:44:44  -5.35  -3.60         -225.547246             -0.0000
iter:  16  22:45:06  -6.33  -3.69         -225.547227             +0.0000
iter:  17  22:45:27  -6.29  -3.76         -225.547246             -0.0000
iter:  18  22:45:49  -6.72  -3.82         -225.547247             -0.0000
iter:  19  22:46:10  -5.85  -3.84         -225.547211             -0.0000
iter:  20  22:46:31  -7.06  -4.38         -225.547206             -0.0000
iter:  21  22:46:58  -7.93  -4.52         -225.547205             -0.0000
iter:  22  22:47:20  -7.30  -4.57         -225.547205             +0.0000
iter:  23  22:47:46  -7.40  -4.64    -2.69-225.547204             -0.0000
iter:  24  22:48:13  -8.03  -4.77    -2.81-225.547204             -0.0000
iter:  25  22:48:40  -7.42  -4.81    -2.36-225.547205             -0.0000
iter:  26  22:49:07  -7.71  -4.75    -2.70-225.547204             -0.0000
iter:  27  22:49:33  -8.85  -5.12    -3.63-225.547204             -0.0000
iter:  28  22:50:00  -8.06  -5.12    -3.12-225.547204             -0.0000
iter:  29  22:50:27  -8.37  -5.18    -3.12-225.547204             -0.0000
iter:  30  22:50:54  -9.46  -5.71    -3.96-225.547204             +0.0000
iter:  31  22:51:21  -9.73  -5.74    -3.81-225.547204             +0.0000
iter:  32  22:51:47  -9.90  -6.01    -3.76-225.547204             -0.0000
iter:  33  22:52:14 -10.12  -5.98    -3.89-225.547204             -0.0000
iter:  34  22:52:41 -10.70  -6.17    -4.33-225.547204             -0.0000
iter:  35  22:53:08 -10.55  -6.19    -4.45-225.547204             -0.0000
iter:  36  22:53:34 -10.42  -6.30    -3.93-225.547204             -0.0000
iter:  37  22:54:01 -10.65  -6.29    -4.10-225.547204             -0.0000
iter:  38  22:54:28 -11.61  -6.68    -4.73-225.547204             -0.0000
iter:  39  22:54:55 -11.87  -6.76    -4.76-225.547204             -0.0000
iter:  40  22:55:21 -12.32  -7.08    -4.67-225.547204             -0.0000
iter:  41  22:55:48 -12.97  -7.47    -5.18-225.547204             -0.0000
iter:  42  22:56:15 -13.22  -7.62    -5.33-225.547204             -0.0000
iter:  43  22:56:42 -13.34  -7.65    -5.92-225.547204             -0.0000
iter:  44  22:57:08 -14.34  -7.85    -6.10-225.547204             -0.0000

Converged after 44 iterations.

Dipole moment: (13.164759, 1.716547, -5.513049) |e|*Ang

Total magnetic moment: (0.000000, 0.000000, -0.000000)
Local magnetic moments:
   0 O  ( 0.000000,  0.000000,  0.001117)
   1 O  ( 0.000000,  0.000000, -0.001048)
   2 O  ( 0.000000,  0.000000, -0.001049)
   3 O  ( 0.000000,  0.000000,  0.001075)
   4 O  ( 0.000000,  0.000000, -0.001057)
   5 O  ( 0.000000,  0.000000,  0.001083)
   6 O  ( 0.000000,  0.000000,  0.001109)
   7 O  ( 0.000000,  0.000000, -0.001040)
   8 O  ( 0.000000,  0.000000,  0.019820)
   9 O  ( 0.000000,  0.000000, -0.019875)
  10 O  ( 0.000000,  0.000000, -0.019754)
  11 O  ( 0.000000,  0.000000,  0.019754)
  12 Mn ( 0.000000,  0.000000,  4.601520)
  13 Mn ( 0.000000,  0.000000, -4.601896)
  14 Mn ( 0.000000,  0.000000, -4.601575)
  15 Mn ( 0.000000,  0.000000,  4.601596)
  16 P  ( 0.000000,  0.000000,  0.001322)
  17 P  ( 0.000000,  0.000000, -0.001148)
  18 P  ( 0.000000,  0.000000, -0.001297)
  19 P  ( 0.000000,  0.000000,  0.001291)
  20 O  ( 0.000000,  0.000000,  0.018066)
  21 O  ( 0.000000,  0.000000, -0.018002)
  22 O  ( 0.000000,  0.000000, -0.018053)
  23 O  ( 0.000000,  0.000000,  0.018074)
  24 Li ( 0.000000,  0.000000,  0.000002)
  25 Li ( 0.000000,  0.000000,  0.000000)
  26 Li ( 0.000000,  0.000000,  0.000002)
  27 Li ( 0.000000,  0.000000,  0.000000)

Energy contributions relative to reference atoms: (reference = -196157.275402)

Kinetic:       +242.874192
Potential:     -215.383064
External:        +0.000000
XC:            -254.954032
Entropy (-ST):   -0.000000
Local:           +1.915699
Free energy:   -225.547204
Extrapolated:  -225.547204

Spin contamination: 9.747593 electrons
Showing only first 2 kpts
                      Up                     Down
 Kpt  Band  Eigenvalues  Occupancy  Eigenvalues  Occupancy
  0    88      3.92163    0.00694      3.91558    0.00694
  0    89      3.97056    0.00694      3.96904    0.00694
  0    90      8.66307    0.00000      8.66442    0.00000
  0    91      8.68031    0.00000      8.68784    0.00000

  1    88      3.91823    0.00694      3.91088    0.00694
  1    89      3.97441    0.00694      3.97243    0.00694
  1    90      8.50752    0.00000      8.51005    0.00000
  1    91      8.52676    0.00000      8.53047    0.00000

Fermi level: 5.31843

Gap: 3.778 eV
Transition (v -> c):
  (s=0, k=73, n=89, [0.08, -0.42, -0.12]) -> (s=1, k=86, n=90, [0.08, 0.08, 0.12])
Writing to born-0.01-21x-.gpw (mode='all')