User:   madkru@g031.nifl.fysik.dtu.dk
Date:   Mon Mar 22 06:23:07 2021
Arch:   x86_64
Pid:    47913
Python: 3.7.4
gpaw:   /home/niflheim/madkru/venv_folder/gpaw/gpaw (d0d1ca1c71)
_gpaw:  /home/niflheim/madkru/venv_folder/gpaw/build/lib.linux-x86_64-sandybridge-3.7/
        _gpaw.cpython-37m-x86_64-linux-gnu.so (4fd39e8b1e)
ase:    /home/niflheim/madkru/venv_folder/ase/ase (version 3.21.0b1-7e6c206a91)
numpy:  /home/niflheim/madkru/venv_folder/lib/python3.7/site-packages/numpy (version 1.19.4)
scipy:  /home/niflheim/madkru/venv_folder/lib/python3.7/site-packages/scipy (version 1.5.4)
units:  Angstrom and eV
cores: 32
OMP_NUM_THREADS: 1

Input parameters:
  convergence: {bands: occupied,
                density: 0.0001,
                eigenstates: 4e-08,
                energy: 0.0005,
                forces: 1e-06}
  kpts: [6 6 4]
  mode: {ecut: 600.0,
         gammacentered: False,
         name: pw}
  occupations: {fixmagmom: False,
                name: fermi-dirac,
                width: 0.001}
  setups: {Mn: :d,3.0}
  symmetry: {point_group: False,
             time_reversal: False}

System changes: positions, numbers, cell, pbc, initial_charges, initial_magmoms

Initialize ...

O-setup:
  name: Oxygen
  id: 9b9d51c344dea68c822856295a461509
  Z: 8.0
  valence: 6
  core: 2
  charge: 0.0
  file: /home/modules/software/GPAW-setups/0.9.20000/O.LDA.gz
  compensation charges: gauss, rc=0.21, lmax=2
  cutoffs: 1.17(filt), 0.83(core),
  valence states:
                energy  radius
    2s(2.00)   -23.752   0.688
    2p(4.00)    -9.195   0.598
    *s           3.459   0.688
    *p          18.016   0.598
    *d           0.000   0.619

  Using partial waves for O as LCAO basis

Mn-setup:
  name: Manganese
  id: 0d715a8018be061a6e9ea6f2d364ac92
  Z: 25.0
  valence: 15
  core: 10
  charge: 0.0
  Hubbard U: 3.000000 eV (l=2, scale=True)
  file: /home/modules/software/GPAW-setups/0.9.20000/Mn.LDA.gz
  compensation charges: gauss, rc=0.38, lmax=2
  cutoffs: 2.14(filt), 0.86(core),
  valence states:
                energy  radius
    3s(2.00)   -85.387   1.275
    4s(2.00)    -5.282   1.275
    3p(6.00)   -54.493   1.281
    4p(0.00)    -1.471   1.281
    3d(5.00)    -7.009   1.138
    *d          20.203   1.138

[...]

P-setup:
  name: Phosphorus
  id: a5561c299094968922a179ab894d2e2d
  Z: 15.0
  valence: 5
  core: 10
  charge: 0.0
  file: /home/modules/software/GPAW-setups/0.9.20000/P.LDA.gz
  compensation charges: gauss, rc=0.30, lmax=2
  cutoffs: 1.69(filt), 1.81(core),
  valence states:
                energy  radius
    3s(2.00)   -14.015   0.953
    3p(3.00)    -5.596   0.953
    *s          13.197   0.953
    *p          21.615   0.953
    *d           0.000   0.953

[...]

Li-setup:
  name: Lithium
  id: b73562207f97a71b6967473b66fe8b65
  Z: 3.0
  valence: 1
  core: 2
  charge: 0.0
  file: /home/modules/software/GPAW-setups/0.9.20000/Li.LDA.gz
  compensation charges: gauss, rc=0.33, lmax=2
  cutoffs: 1.91(filt), 2.55(core),
  valence states:
                energy  radius
    2s(1.00)    -2.874   1.058
    2p(0.00)    -1.126   1.058
    *s          24.338   1.058

  Using partial waves for Li as LCAO basis

Reference energy: -196157.275402

Spin-polarized calculation.
Magnetic moment: 0.000000

Convergence criteria:
  Maximum total energy change: 0.0005 eV / electron
  Maximum integral of absolute density change: 0.0001 electrons
  Maximum integral of absolute eigenstate change: 4e-08 eV^2
  Maximum change in atomic force: 1e-06 eV / Ang
  Maximum number of iterations: 333

Symmetries present (total): 1

  ( 1  0  0)
  ( 0  1  0)
  ( 0  0  1)

144 k-points: 6 x 6 x 4 Monkhorst-Pack grid
144 k-points in the irreducible part of the Brillouin zone
       k-points in crystal coordinates                weights
   0:    -0.41666667   -0.41666667   -0.37500000          1/144
   1:    -0.41666667   -0.41666667   -0.12500000          1/144
   2:    -0.41666667   -0.41666667    0.12500000          1/144
   3:    -0.41666667   -0.41666667    0.37500000          1/144
   4:    -0.41666667   -0.25000000   -0.37500000          1/144
   5:    -0.41666667   -0.25000000   -0.12500000          1/144
   6:    -0.41666667   -0.25000000    0.12500000          1/144
   7:    -0.41666667   -0.25000000    0.37500000          1/144
   8:    -0.41666667   -0.08333333   -0.37500000          1/144
   9:    -0.41666667   -0.08333333   -0.12500000          1/144
          ...
 143:     0.41666667    0.41666667    0.37500000          1/144

Wave functions: Plane wave expansion
  Cutoff energy: 600.000 eV
  Number of coefficients (min, max): 10068, 10125
  Pulay-stress correction: 0.000000 eV/Ang^3 (de/decut=0.000000)
  Using FFTW library
  ScaLapack parameters: grid=1x1, blocksize=None
  Wavefunction extrapolation:
    Improved wavefunction reuse through dual PAW basis

  Fermi-Dirac: width=0.0010 eV

Eigensolver
   Davidson(niter=2, smin=None, normalize=True)

Densities:
  Coarse grid: 60*35*27 grid
  Fine grid: 120*70*54 grid
  Total Charge: 0.000000

Density mixing:
  Method: difference
  Backend: pulay
  Linear mixing parameter: 0.05
  Mixing with 5 old densities
  Damping of long wave oscillations: 50

Hamiltonian:
  XC and Coulomb potentials evaluated on a 120*70*54 grid
  Using the LDA Exchange-Correlation functional

Total number of cores used: 32
Parallelization over k-points: 16
Domain decomposition: 2 x 1 x 1

Number of atoms: 28
Number of atomic orbitals: 148
Number of bands in calculation: 112
Number of valence electrons: 180
Bands to converge: occupied

... initialized

Initializing position-dependent things.

Density initialized from atomic densities
Creating initial wave functions:
  112 bands from LCAO basis set

    /|         OP              |
   / |O            O        O  |
  /  |       O            O  P |
 *   |O    Mn      O           |
 |   |          OLi          O |
 |   P--O--------------Mn------.
 |  /          Li    O  Mn  O /
 | /LiO           PO         /
 |/       Mn                /
 *Li-----------------------*

Positions:
   0 O     -1.330281   -2.539252   -1.168500    ( 0.0000,  0.0000,  0.0000)
   1 O     -3.152392    2.974909    1.200956    ( 0.0000,  0.0000,  0.0000)
   2 O      2.077234    0.510133    1.506966    ( 0.0000,  0.0000,  0.0000)
   3 O      3.899724   -0.074476   -0.862491    ( 0.0000,  0.0000,  0.0000)
   4 O      2.077424    2.974966    1.507072    ( 0.0000,  0.0000,  0.0000)
   5 O      3.899535   -2.539195   -0.872384    ( 0.0000,  0.0000,  0.0000)
   6 O     -1.330092   -0.074418   -1.168395    ( 0.0000,  0.0000,  0.0000)
   7 O     -3.152581    0.510191    1.201063    ( 0.0000,  0.0000,  0.0000)
   8 O     -4.389675   -1.306969   -0.813152    ( 0.0000,  0.0000,  0.0000)
   9 O     -0.093301    1.742683    1.556268    ( 0.0000,  0.0000,  0.0000)
  10 O      5.136817    1.742683    1.151723    ( 0.0000,  0.0000,  0.0000)
  11 O      0.840444   -1.306969   -1.217697    ( 0.0000,  0.0000,  0.0000)
  12 Mn    -2.557192   -1.307258    0.273595    ( 0.0000,  0.0000,  1.0000)
  13 Mn    -1.925535    1.742972   -2.096623    ( 0.0000,  0.0000, -1.0000)
  14 Mn     3.304335    1.742972    0.064976    ( 0.0000,  0.0000, -1.0000)
  15 Mn     2.672678   -1.307258    2.435195    ( 0.0000,  0.0000,  1.0000)
  16 P     -0.597175   -1.306854   -1.801474    ( 0.0000,  0.0000,  0.0000)
  17 P     -3.885565    1.742568    0.568028    ( 0.0000,  0.0000,  0.0000)
  18 P      1.344318    1.742568    2.140045    ( 0.0000,  0.0000,  0.0000)
  19 P      4.632708   -1.306854   -0.229456    ( 0.0000,  0.0000,  0.0000)
  20 O     -0.636957   -1.306861    1.403074    ( 0.0000,  0.0000,  0.0000)
  21 O     -3.845824    1.742575   -0.967462    ( 0.0000,  0.0000,  0.0000)
  22 O      1.384100    1.742576   -1.064503    ( 0.0000,  0.0000,  0.0000)
  23 O      4.592967   -1.306861    1.306033    ( 0.0000,  0.0000,  0.0000)
  24 Li    -4.856429   -2.832143   -2.200714    ( 0.0000,  0.0000,  0.0000)
  25 Li     0.373571   -2.832143    0.169286    ( 0.0000,  0.0000,  0.0000)
  26 Li    -4.856429    0.217857   -2.200714    ( 0.0000,  0.0000,  0.0000)
  27 Li     0.373571    0.217857    0.169286    ( 0.0000,  0.0000,  0.0000)

Unit cell:
           periodic     x           y           z      points  spacing
  1. axis:    yes   10.460000    0.000000    0.000000    60     0.1743
  2. axis:    yes    0.000000    6.100000    0.000000    35     0.1743
  3. axis:    yes    0.000000    0.000000    4.740000    27     0.1756

  Lengths:  10.460000   6.100000   4.740000
  Angles:   90.000000  90.000000  90.000000

Effective grid spacing dv^(1/3) = 0.1747

                     log10-error:           total        iterations:
           time      wfs    density  force  energy       poisson  magmom
iter:   1  06:26:08                       -220.688782             +0.0000
iter:   2  06:26:47  -0.64  -0.92         -235.501371             +0.0000
iter:   3  06:27:26  -0.40  -0.96         -226.167919             -0.0000
iter:   4  06:28:06  -1.41  -1.29         -225.888096             +0.0000
iter:   5  06:28:45  -1.19  -1.38         -227.589996             +0.0000
iter:   6  06:29:25  -1.39  -1.51         -225.828709             +0.0000
iter:   7  06:30:04  -2.57  -2.06         -225.899154             +0.0000
iter:   8  06:30:44  -2.23  -2.01         -225.640613             -0.0000
iter:   9  06:31:23  -2.68  -2.09         -225.546506             +0.0000
iter:  10  06:32:03  -3.56  -2.95         -225.545811             +0.0000
iter:  11  06:32:42  -3.95  -3.00         -225.547233             +0.0000
iter:  12  06:33:21  -4.29  -3.22         -225.547420             +0.0000
iter:  13  06:34:01  -5.37  -3.36         -225.547306             -0.0000
iter:  14  06:34:40  -5.18  -3.44         -225.547152             -0.0000
iter:  15  06:35:20  -5.36  -3.60         -225.547070             -0.0000
iter:  16  06:35:59  -6.29  -3.68         -225.547053             +0.0000
iter:  17  06:36:38  -6.27  -3.75         -225.547072             -0.0000
iter:  18  06:37:18  -6.79  -3.81         -225.547073             -0.0000
iter:  19  06:37:57  -5.82  -3.83         -225.547037             -0.0000
iter:  20  06:38:37  -7.00  -4.43         -225.547034             -0.0000
iter:  21  06:39:27  -7.73  -4.72         -225.547031             +0.0000
iter:  22  06:40:06  -7.20  -4.85         -225.547029             +0.0000
iter:  23  06:40:56  -8.01  -4.87    -3.06-225.547029             +0.0000
iter:  24  06:41:46  -8.94  -4.98    -3.16-225.547030             +0.0000
iter:  25  06:42:36  -7.85  -5.00    -2.81-225.547029             +0.0000
iter:  26  06:43:26  -8.94  -5.05    -3.42-225.547029             +0.0000
iter:  27  06:44:16  -8.27  -5.08    -3.58-225.547029             +0.0000
iter:  28  06:45:06  -8.66  -5.26    -3.11-225.547029             +0.0000
iter:  29  06:45:56  -9.57  -5.39    -3.61-225.547029             +0.0000
iter:  30  06:46:46  -8.75  -5.46    -3.33-225.547029             +0.0000
iter:  31  06:47:36  -8.91  -5.75    -3.42-225.547029             +0.0000
iter:  32  06:48:26 -10.24  -5.96    -3.95-225.547029             +0.0000
iter:  33  06:49:16 -10.48  -6.07    -3.87-225.547029             -0.0000
iter:  34  06:50:06 -11.07  -6.30    -4.40-225.547029             +0.0000
iter:  35  06:50:56 -11.24  -6.51    -4.51-225.547029             +0.0000
iter:  36  06:51:46 -11.86  -6.64    -4.78-225.547029             +0.0000
iter:  37  06:52:36 -11.99  -6.68    -4.78-225.547029             +0.0000
iter:  38  06:53:26 -11.93  -6.79    -4.61-225.547029             +0.0000
iter:  39  06:54:15 -12.25  -6.94    -4.96-225.547029             +0.0000
iter:  40  06:55:05 -12.11  -7.01    -4.86-225.547029             +0.0000
iter:  41  06:55:55 -12.78  -7.20    -5.52-225.547029             +0.0000
iter:  42  06:56:45 -13.43  -7.25    -5.75-225.547029             +0.0000
iter:  43  06:57:35 -13.33  -7.30    -5.06-225.547029             -0.0000
iter:  44  06:58:25 -13.80  -7.51    -5.48-225.547029             +0.0000
iter:  45  06:59:15 -14.69  -7.62    -6.58-225.547029             +0.0000

Converged after 45 iterations.

Dipole moment: (13.160932, 1.716157, -5.536644) |e|*Ang

Total magnetic moment: (0.000000, 0.000000, 0.000000)
Local magnetic moments:
   0 O  ( 0.000000,  0.000000,  0.001068)
   1 O  ( 0.000000,  0.000000, -0.001046)
   2 O  ( 0.000000,  0.000000, -0.001144)
   3 O  ( 0.000000,  0.000000,  0.001072)
   4 O  ( 0.000000,  0.000000, -0.001014)
   5 O  ( 0.000000,  0.000000,  0.001243)
   6 O  ( 0.000000,  0.000000,  0.001063)
   7 O  ( 0.000000,  0.000000, -0.001035)
   8 O  ( 0.000000,  0.000000,  0.019838)
   9 O  ( 0.000000,  0.000000, -0.019779)
  10 O  ( 0.000000,  0.000000, -0.019737)
  11 O  ( 0.000000,  0.000000,  0.019789)
  12 Mn ( 0.000000,  0.000000,  4.601523)
  13 Mn ( 0.000000,  0.000000, -4.601589)
  14 Mn ( 0.000000,  0.000000, -4.601790)
  15 Mn ( 0.000000,  0.000000,  4.601288)
  16 P  ( 0.000000,  0.000000,  0.001307)
  17 P  ( 0.000000,  0.000000, -0.001289)
  18 P  ( 0.000000,  0.000000, -0.001294)
  19 P  ( 0.000000,  0.000000,  0.001422)
  20 O  ( 0.000000,  0.000000,  0.018074)
  21 O  ( 0.000000,  0.000000, -0.018063)
  22 O  ( 0.000000,  0.000000, -0.018061)
  23 O  ( 0.000000,  0.000000,  0.018064)
  24 Li ( 0.000000,  0.000000,  0.000006)
  25 Li ( 0.000000,  0.000000, -0.000001)
  26 Li ( 0.000000,  0.000000, -0.000000)
  27 Li ( 0.000000,  0.000000,  0.000000)

Energy contributions relative to reference atoms: (reference = -196157.275402)

Kinetic:       +242.696141
Potential:     -215.250401
External:        +0.000000
XC:            -254.908731
Entropy (-ST):   -0.000000
Local:           +1.915962
Free energy:   -225.547029
Extrapolated:  -225.547029

Spin contamination: 9.747425 electrons
Showing only first 2 kpts
                      Up                     Down
 Kpt  Band  Eigenvalues  Occupancy  Eigenvalues  Occupancy
  0    88      3.92536    0.00694      3.92150    0.00694
  0    89      3.97321    0.00694      3.97018    0.00694
  0    90      8.66774    0.00000      8.66880    0.00000
  0    91      8.68674    0.00000      8.69037    0.00000

  1    88      3.92209    0.00694      3.91801    0.00694
  1    89      3.97747    0.00694      3.97420    0.00694
  1    90      8.51412    0.00000      8.51339    0.00000
  1    91      8.52973    0.00000      8.53199    0.00000

Fermi level: 5.31874

Gap: 3.774 eV
Transition (v -> c):
  (s=0, k=50, n=89, [-0.08, -0.42, 0.12]) -> (s=1, k=61, n=90, [-0.08, 0.08, -0.12])
Writing to born-0.01-5z-.gpw (mode='all')