User:   madkru@g006.nifl.fysik.dtu.dk
Date:   Tue Mar 23 23:42:14 2021
Arch:   x86_64
Pid:    12017
Python: 3.7.4
gpaw:   /home/niflheim/madkru/venv_folder/gpaw/gpaw (d0d1ca1c71)
_gpaw:  /home/niflheim/madkru/venv_folder/gpaw/build/lib.linux-x86_64-sandybridge-3.7/
        _gpaw.cpython-37m-x86_64-linux-gnu.so (4fd39e8b1e)
ase:    /home/niflheim/madkru/venv_folder/ase/ase (version 3.21.0b1-7e6c206a91)
numpy:  /home/niflheim/madkru/venv_folder/lib/python3.7/site-packages/numpy (version 1.19.4)
scipy:  /home/niflheim/madkru/venv_folder/lib/python3.7/site-packages/scipy (version 1.5.4)
units:  Angstrom and eV
cores: 64
OMP_NUM_THREADS: 1

Input parameters:
  convergence: {bands: occupied,
                density: 0.0001,
                eigenstates: 4e-08,
                energy: 0.0005,
                forces: 1e-06}
  kpts: [6 6 4]
  mode: {ecut: 600.0,
         gammacentered: False,
         name: pw}
  occupations: {fixmagmom: False,
                name: fermi-dirac,
                width: 0.001}
  setups: {Mn: :d,3.0}
  symmetry: {point_group: False,
             time_reversal: False}

System changes: positions, numbers, cell, pbc, initial_charges, initial_magmoms

Initialize ...

O-setup:
  name: Oxygen
  id: 9b9d51c344dea68c822856295a461509
  Z: 8.0
  valence: 6
  core: 2
  charge: 0.0
  file: /home/modules/software/GPAW-setups/0.9.20000/O.LDA.gz
  compensation charges: gauss, rc=0.21, lmax=2
  cutoffs: 1.17(filt), 0.83(core),
  valence states:
                energy  radius
    2s(2.00)   -23.752   0.688
    2p(4.00)    -9.195   0.598
    *s           3.459   0.688
    *p          18.016   0.598
    *d           0.000   0.619

  Using partial waves for O as LCAO basis

Mn-setup:
  name: Manganese
  id: 0d715a8018be061a6e9ea6f2d364ac92
  Z: 25.0
  valence: 15
  core: 10
  charge: 0.0
  Hubbard U: 3.000000 eV (l=2, scale=True)
  file: /home/modules/software/GPAW-setups/0.9.20000/Mn.LDA.gz
  compensation charges: gauss, rc=0.38, lmax=2
  cutoffs: 2.14(filt), 0.86(core),
  valence states:
                energy  radius
    3s(2.00)   -85.387   1.275
    4s(2.00)    -5.282   1.275
    3p(6.00)   -54.493   1.281
    4p(0.00)    -1.471   1.281
    3d(5.00)    -7.009   1.138
    *d          20.203   1.138

[...]

P-setup:
  name: Phosphorus
  id: a5561c299094968922a179ab894d2e2d
  Z: 15.0
  valence: 5
  core: 10
  charge: 0.0
  file: /home/modules/software/GPAW-setups/0.9.20000/P.LDA.gz
  compensation charges: gauss, rc=0.30, lmax=2
  cutoffs: 1.69(filt), 1.81(core),
  valence states:
                energy  radius
    3s(2.00)   -14.015   0.953
    3p(3.00)    -5.596   0.953
    *s          13.197   0.953
    *p          21.615   0.953
    *d           0.000   0.953

[...]

Li-setup:
  name: Lithium
  id: b73562207f97a71b6967473b66fe8b65
  Z: 3.0
  valence: 1
  core: 2
  charge: 0.0
  file: /home/modules/software/GPAW-setups/0.9.20000/Li.LDA.gz
  compensation charges: gauss, rc=0.33, lmax=2
  cutoffs: 1.91(filt), 2.55(core),
  valence states:
                energy  radius
    2s(1.00)    -2.874   1.058
    2p(0.00)    -1.126   1.058
    *s          24.338   1.058

  Using partial waves for Li as LCAO basis

Reference energy: -196157.275402

Spin-polarized calculation.
Magnetic moment: 0.000000

Convergence criteria:
  Maximum total energy change: 0.0005 eV / electron
  Maximum integral of absolute density change: 0.0001 electrons
  Maximum integral of absolute eigenstate change: 4e-08 eV^2
  Maximum change in atomic force: 1e-06 eV / Ang
  Maximum number of iterations: 333

Symmetries present (total): 1

  ( 1  0  0)
  ( 0  1  0)
  ( 0  0  1)

144 k-points: 6 x 6 x 4 Monkhorst-Pack grid
144 k-points in the irreducible part of the Brillouin zone
       k-points in crystal coordinates                weights
   0:    -0.41666667   -0.41666667   -0.37500000          1/144
   1:    -0.41666667   -0.41666667   -0.12500000          1/144
   2:    -0.41666667   -0.41666667    0.12500000          1/144
   3:    -0.41666667   -0.41666667    0.37500000          1/144
   4:    -0.41666667   -0.25000000   -0.37500000          1/144
   5:    -0.41666667   -0.25000000   -0.12500000          1/144
   6:    -0.41666667   -0.25000000    0.12500000          1/144
   7:    -0.41666667   -0.25000000    0.37500000          1/144
   8:    -0.41666667   -0.08333333   -0.37500000          1/144
   9:    -0.41666667   -0.08333333   -0.12500000          1/144
          ...
 143:     0.41666667    0.41666667    0.37500000          1/144

Wave functions: Plane wave expansion
  Cutoff energy: 600.000 eV
  Number of coefficients (min, max): 10068, 10125
  Pulay-stress correction: 0.000000 eV/Ang^3 (de/decut=0.000000)
  Using FFTW library
  ScaLapack parameters: grid=1x1, blocksize=None
  Wavefunction extrapolation:
    Improved wavefunction reuse through dual PAW basis

  Fermi-Dirac: width=0.0010 eV

Eigensolver
   Davidson(niter=2, smin=None, normalize=True)

Densities:
  Coarse grid: 60*35*27 grid
  Fine grid: 120*70*54 grid
  Total Charge: 0.000000

Density mixing:
  Method: difference
  Backend: pulay
  Linear mixing parameter: 0.05
  Mixing with 5 old densities
  Damping of long wave oscillations: 50

Hamiltonian:
  XC and Coulomb potentials evaluated on a 120*70*54 grid
  Using the LDA Exchange-Correlation functional

Total number of cores used: 64
Parallelization over k-points: 16
Domain decomposition: 2 x 2 x 1

Number of atoms: 28
Number of atomic orbitals: 148
Number of bands in calculation: 112
Number of valence electrons: 180
Bands to converge: occupied

... initialized

Initializing position-dependent things.

Density initialized from atomic densities
Creating initial wave functions:
  112 bands from LCAO basis set

    /|         OP              |
   / |O            O        O  |
  /  |       O            O  P |
 *   |O    Mn      O           |
 |   |          OLi          O |
 |   P--O--------------Mn------.
 |  /          Li    O  Mn  O /
 | /LiO           PO         /
 |/       Mn                /
 *Li-----------------------*

Positions:
   0 O     -1.330281   -2.539252   -1.168500    ( 0.0000,  0.0000,  0.0000)
   1 O     -3.152392    2.974909    1.200956    ( 0.0000,  0.0000,  0.0000)
   2 O      2.077234    0.510133    1.506966    ( 0.0000,  0.0000,  0.0000)
   3 O      3.899724   -0.074476   -0.862491    ( 0.0000,  0.0000,  0.0000)
   4 O      2.077424    2.974966    1.507072    ( 0.0000,  0.0000,  0.0000)
   5 O      3.899535   -2.539195   -0.862384    ( 0.0000,  0.0000,  0.0000)
   6 O     -1.330092   -0.074418   -1.168395    ( 0.0000,  0.0000,  0.0000)
   7 O     -3.152581    0.510191    1.201063    ( 0.0000,  0.0000,  0.0000)
   8 O     -4.389675   -1.306969   -0.813152    ( 0.0000,  0.0000,  0.0000)
   9 O     -0.093301    1.742683    1.556268    ( 0.0000,  0.0000,  0.0000)
  10 O      5.136817    1.742683    1.151723    ( 0.0000,  0.0000,  0.0000)
  11 O      0.840444   -1.306969   -1.217697    ( 0.0000,  0.0000,  0.0000)
  12 Mn    -2.557192   -1.307258    0.273595    ( 0.0000,  0.0000,  1.0000)
  13 Mn    -1.925535    1.732972   -2.096623    ( 0.0000,  0.0000, -1.0000)
  14 Mn     3.304335    1.742972    0.064976    ( 0.0000,  0.0000, -1.0000)
  15 Mn     2.672678   -1.307258    2.435195    ( 0.0000,  0.0000,  1.0000)
  16 P     -0.597175   -1.306854   -1.801474    ( 0.0000,  0.0000,  0.0000)
  17 P     -3.885565    1.742568    0.568028    ( 0.0000,  0.0000,  0.0000)
  18 P      1.344318    1.742568    2.140045    ( 0.0000,  0.0000,  0.0000)
  19 P      4.632708   -1.306854   -0.229456    ( 0.0000,  0.0000,  0.0000)
  20 O     -0.636957   -1.306861    1.403074    ( 0.0000,  0.0000,  0.0000)
  21 O     -3.845824    1.742575   -0.967462    ( 0.0000,  0.0000,  0.0000)
  22 O      1.384100    1.742576   -1.064503    ( 0.0000,  0.0000,  0.0000)
  23 O      4.592967   -1.306861    1.306033    ( 0.0000,  0.0000,  0.0000)
  24 Li    -4.856429   -2.832143   -2.200714    ( 0.0000,  0.0000,  0.0000)
  25 Li     0.373571   -2.832143    0.169286    ( 0.0000,  0.0000,  0.0000)
  26 Li    -4.856429    0.217857   -2.200714    ( 0.0000,  0.0000,  0.0000)
  27 Li     0.373571    0.217857    0.169286    ( 0.0000,  0.0000,  0.0000)

Unit cell:
           periodic     x           y           z      points  spacing
  1. axis:    yes   10.460000    0.000000    0.000000    60     0.1743
  2. axis:    yes    0.000000    6.100000    0.000000    35     0.1743
  3. axis:    yes    0.000000    0.000000    4.740000    27     0.1756

  Lengths:  10.460000   6.100000   4.740000
  Angles:   90.000000  90.000000  90.000000

Effective grid spacing dv^(1/3) = 0.1747

                     log10-error:           total        iterations:
           time      wfs    density  force  energy       poisson  magmom
iter:   1  23:43:46                       -220.688432             +0.0000
iter:   2  23:44:08  -0.64  -0.92         -235.503612             +0.0000
iter:   3  23:44:29  -0.40  -0.96         -226.168700             -0.0000
iter:   4  23:44:50  -1.41  -1.29         -225.888116             +0.0000
iter:   5  23:45:12  -1.19  -1.38         -227.588981             +0.0000
iter:   6  23:45:33  -1.39  -1.51         -225.828981             +0.0000
iter:   7  23:45:55  -2.57  -2.06         -225.898956             +0.0000
iter:   8  23:46:16  -2.23  -2.01         -225.641939             -0.0000
iter:   9  23:46:37  -2.68  -2.09         -225.546586             +0.0000
iter:  10  23:46:59  -3.55  -2.95         -225.545816             +0.0000
iter:  11  23:47:20  -3.95  -3.00         -225.547379             +0.0000
iter:  12  23:47:42  -4.29  -3.22         -225.547551             +0.0000
iter:  13  23:48:03  -5.38  -3.36         -225.547445             -0.0000
iter:  14  23:48:25  -5.19  -3.44         -225.547298             -0.0000
iter:  15  23:48:46  -5.37  -3.60         -225.547216             -0.0000
iter:  16  23:49:07  -6.32  -3.68         -225.547199             +0.0000
iter:  17  23:49:29  -6.25  -3.75         -225.547218             -0.0000
iter:  18  23:49:50  -6.75  -3.81         -225.547219             -0.0000
iter:  19  23:50:12  -5.81  -3.83         -225.547183             -0.0000
iter:  20  23:50:33  -6.97  -4.41         -225.547180             -0.0000
iter:  21  23:51:00  -7.74  -4.72         -225.547177             -0.0000
iter:  22  23:51:21  -7.29  -4.85         -225.547176             -0.0000
iter:  23  23:51:48  -7.92  -4.75    -3.04-225.547175             +0.0000
iter:  24  23:52:15  -8.68  -4.99    -3.33-225.547175             -0.0000
iter:  25  23:52:42  -7.60  -5.01    -2.59-225.547175             -0.0000
iter:  26  23:53:08  -8.20  -5.01    -2.89-225.547175             -0.0000
iter:  27  23:53:35  -8.30  -5.16    -3.31-225.547175             -0.0000
iter:  28  23:54:02  -7.55  -5.11    -2.70-225.547175             -0.0000
iter:  29  23:54:29  -7.94  -4.95    -2.82-225.547175             -0.0000
iter:  30  23:54:56  -9.10  -5.43    -3.51-225.547175             -0.0000
iter:  31  23:55:22  -9.27  -5.49    -3.67-225.547175             -0.0000
iter:  32  23:55:49  -9.47  -5.58    -3.26-225.547175             -0.0000
iter:  33  23:56:16  -8.93  -5.76    -3.58-225.547175             +0.0000
iter:  34  23:56:43  -9.97  -5.85    -4.10-225.547175             -0.0000
iter:  35  23:57:10 -10.35  -5.88    -4.13-225.547175             -0.0000
iter:  36  23:57:36  -9.39  -5.93    -3.96-225.547175             -0.0000
iter:  37  23:58:03 -10.19  -5.99    -4.08-225.547175             -0.0000
iter:  38  23:58:30 -10.48  -6.12    -4.44-225.547175             -0.0000
iter:  39  23:58:57 -10.88  -6.18    -4.19-225.547175             -0.0000
iter:  40  23:59:24 -10.50  -6.33    -4.45-225.547175             -0.0000
iter:  41  23:59:50 -11.48  -6.48    -5.26-225.547175             -0.0000
iter:  42  00:00:17 -11.00  -6.50    -4.55-225.547175             -0.0000
iter:  43  00:00:44 -11.71  -6.57    -4.82-225.547175             -0.0000
iter:  44  00:01:11 -12.44  -6.61    -4.88-225.547175             -0.0000
iter:  45  00:01:37 -11.20  -6.66    -4.17-225.547175             -0.0000
iter:  46  00:02:04 -12.70  -7.17    -5.33-225.547175             -0.0000
iter:  47  00:02:31 -12.33  -7.24    -5.25-225.547175             -0.0000
iter:  48  00:02:58 -12.40  -7.47    -5.14-225.547175             -0.0000
iter:  49  00:03:25 -12.95  -7.70    -5.18-225.547175             -0.0000
iter:  50  00:03:52 -12.76  -7.56    -5.02-225.547175             -0.0000
iter:  51  00:04:18 -13.85  -7.81    -5.42-225.547175             -0.0000
iter:  52  00:04:45 -14.34  -8.17    -6.14-225.547175             -0.0000

Converged after 52 iterations.

Dipole moment: (13.160114, 1.702577, -5.512647) |e|*Ang

Total magnetic moment: (0.000000, 0.000000, -0.000000)
Local magnetic moments:
   0 O  ( 0.000000,  0.000000,  0.001377)
   1 O  ( 0.000000,  0.000000, -0.000817)
   2 O  ( 0.000000,  0.000000, -0.001047)
   3 O  ( 0.000000,  0.000000,  0.001045)
   4 O  ( 0.000000,  0.000000, -0.001077)
   5 O  ( 0.000000,  0.000000,  0.001051)
   6 O  ( 0.000000,  0.000000,  0.000743)
   7 O  ( 0.000000,  0.000000, -0.001279)
   8 O  ( 0.000000,  0.000000,  0.019779)
   9 O  ( 0.000000,  0.000000, -0.019777)
  10 O  ( 0.000000,  0.000000, -0.019779)
  11 O  ( 0.000000,  0.000000,  0.019775)
  12 Mn ( 0.000000,  0.000000,  4.601523)
  13 Mn ( 0.000000,  0.000000, -4.601561)
  14 Mn ( 0.000000,  0.000000, -4.601524)
  15 Mn ( 0.000000,  0.000000,  4.601592)
  16 P  ( 0.000000,  0.000000,  0.001297)
  17 P  ( 0.000000,  0.000000, -0.001294)
  18 P  ( 0.000000,  0.000000, -0.001299)
  19 P  ( 0.000000,  0.000000,  0.001293)
  20 O  ( 0.000000,  0.000000,  0.018071)
  21 O  ( 0.000000,  0.000000, -0.018069)
  22 O  ( 0.000000,  0.000000, -0.018072)
  23 O  ( 0.000000,  0.000000,  0.018068)
  24 Li ( 0.000000,  0.000000, -0.000004)
  25 Li ( 0.000000,  0.000000,  0.000002)
  26 Li ( 0.000000,  0.000000,  0.000004)
  27 Li ( 0.000000,  0.000000, -0.000002)

Energy contributions relative to reference atoms: (reference = -196157.275402)

Kinetic:       +242.946511
Potential:     -215.442225
External:        +0.000000
XC:            -254.966736
Entropy (-ST):   -0.000000
Local:           +1.915275
Free energy:   -225.547175
Extrapolated:  -225.547175

Spin contamination: 9.747493 electrons
Showing only first 2 kpts
                      Up                     Down
 Kpt  Band  Eigenvalues  Occupancy  Eigenvalues  Occupancy
  0    88      3.92277    0.00694      3.92235    0.00694
  0    89      3.97162    0.00694      3.97190    0.00694
  0    90      8.66735    0.00000      8.66738    0.00000
  0    91      8.68670    0.00000      8.68680    0.00000

  1    88      3.91930    0.00694      3.91926    0.00694
  1    89      3.97543    0.00694      3.97536    0.00694
  1    90      8.51317    0.00000      8.51304    0.00000
  1    91      8.52967    0.00000      8.52964    0.00000

Fermi level: 5.31835

Gap: 3.778 eV
Transition (v -> c):
  (s=1, k=74, n=89, [0.08, -0.42, 0.12]) -> (s=0, k=82, n=90, [0.08, -0.08, 0.12])
Writing to born-0.01-13y-.gpw (mode='all')