User:   madkru@g031.nifl.fysik.dtu.dk
Date:   Mon Mar 22 03:17:06 2021
Arch:   x86_64
Pid:    47913
Python: 3.7.4
gpaw:   /home/niflheim/madkru/venv_folder/gpaw/gpaw (d0d1ca1c71)
_gpaw:  /home/niflheim/madkru/venv_folder/gpaw/build/lib.linux-x86_64-sandybridge-3.7/
        _gpaw.cpython-37m-x86_64-linux-gnu.so (4fd39e8b1e)
ase:    /home/niflheim/madkru/venv_folder/ase/ase (version 3.21.0b1-7e6c206a91)
numpy:  /home/niflheim/madkru/venv_folder/lib/python3.7/site-packages/numpy (version 1.19.4)
scipy:  /home/niflheim/madkru/venv_folder/lib/python3.7/site-packages/scipy (version 1.5.4)
units:  Angstrom and eV
cores: 32
OMP_NUM_THREADS: 1

Input parameters:
  convergence: {bands: occupied,
                density: 0.0001,
                eigenstates: 4e-08,
                energy: 0.0005,
                forces: 1e-06}
  kpts: [6 6 4]
  mode: {ecut: 600.0,
         gammacentered: False,
         name: pw}
  occupations: {fixmagmom: False,
                name: fermi-dirac,
                width: 0.001}
  setups: {Mn: :d,3.0}
  symmetry: {point_group: False,
             time_reversal: False}

System changes: positions, numbers, cell, pbc, initial_charges, initial_magmoms

Initialize ...

O-setup:
  name: Oxygen
  id: 9b9d51c344dea68c822856295a461509
  Z: 8.0
  valence: 6
  core: 2
  charge: 0.0
  file: /home/modules/software/GPAW-setups/0.9.20000/O.LDA.gz
  compensation charges: gauss, rc=0.21, lmax=2
  cutoffs: 1.17(filt), 0.83(core),
  valence states:
                energy  radius
    2s(2.00)   -23.752   0.688
    2p(4.00)    -9.195   0.598
    *s           3.459   0.688
    *p          18.016   0.598
    *d           0.000   0.619

  Using partial waves for O as LCAO basis

Mn-setup:
  name: Manganese
  id: 0d715a8018be061a6e9ea6f2d364ac92
  Z: 25.0
  valence: 15
  core: 10
  charge: 0.0
  Hubbard U: 3.000000 eV (l=2, scale=True)
  file: /home/modules/software/GPAW-setups/0.9.20000/Mn.LDA.gz
  compensation charges: gauss, rc=0.38, lmax=2
  cutoffs: 2.14(filt), 0.86(core),
  valence states:
                energy  radius
    3s(2.00)   -85.387   1.275
    4s(2.00)    -5.282   1.275
    3p(6.00)   -54.493   1.281
    4p(0.00)    -1.471   1.281
    3d(5.00)    -7.009   1.138
    *d          20.203   1.138

[...]

P-setup:
  name: Phosphorus
  id: a5561c299094968922a179ab894d2e2d
  Z: 15.0
  valence: 5
  core: 10
  charge: 0.0
  file: /home/modules/software/GPAW-setups/0.9.20000/P.LDA.gz
  compensation charges: gauss, rc=0.30, lmax=2
  cutoffs: 1.69(filt), 1.81(core),
  valence states:
                energy  radius
    3s(2.00)   -14.015   0.953
    3p(3.00)    -5.596   0.953
    *s          13.197   0.953
    *p          21.615   0.953
    *d           0.000   0.953

[...]

Li-setup:
  name: Lithium
  id: b73562207f97a71b6967473b66fe8b65
  Z: 3.0
  valence: 1
  core: 2
  charge: 0.0
  file: /home/modules/software/GPAW-setups/0.9.20000/Li.LDA.gz
  compensation charges: gauss, rc=0.33, lmax=2
  cutoffs: 1.91(filt), 2.55(core),
  valence states:
                energy  radius
    2s(1.00)    -2.874   1.058
    2p(0.00)    -1.126   1.058
    *s          24.338   1.058

  Using partial waves for Li as LCAO basis

Reference energy: -196157.275402

Spin-polarized calculation.
Magnetic moment: 0.000000

Convergence criteria:
  Maximum total energy change: 0.0005 eV / electron
  Maximum integral of absolute density change: 0.0001 electrons
  Maximum integral of absolute eigenstate change: 4e-08 eV^2
  Maximum change in atomic force: 1e-06 eV / Ang
  Maximum number of iterations: 333

Symmetries present (total): 1

  ( 1  0  0)
  ( 0  1  0)
  ( 0  0  1)

144 k-points: 6 x 6 x 4 Monkhorst-Pack grid
144 k-points in the irreducible part of the Brillouin zone
       k-points in crystal coordinates                weights
   0:    -0.41666667   -0.41666667   -0.37500000          1/144
   1:    -0.41666667   -0.41666667   -0.12500000          1/144
   2:    -0.41666667   -0.41666667    0.12500000          1/144
   3:    -0.41666667   -0.41666667    0.37500000          1/144
   4:    -0.41666667   -0.25000000   -0.37500000          1/144
   5:    -0.41666667   -0.25000000   -0.12500000          1/144
   6:    -0.41666667   -0.25000000    0.12500000          1/144
   7:    -0.41666667   -0.25000000    0.37500000          1/144
   8:    -0.41666667   -0.08333333   -0.37500000          1/144
   9:    -0.41666667   -0.08333333   -0.12500000          1/144
          ...
 143:     0.41666667    0.41666667    0.37500000          1/144

Wave functions: Plane wave expansion
  Cutoff energy: 600.000 eV
  Number of coefficients (min, max): 10068, 10125
  Pulay-stress correction: 0.000000 eV/Ang^3 (de/decut=0.000000)
  Using FFTW library
  ScaLapack parameters: grid=1x1, blocksize=None
  Wavefunction extrapolation:
    Improved wavefunction reuse through dual PAW basis

  Fermi-Dirac: width=0.0010 eV

Eigensolver
   Davidson(niter=2, smin=None, normalize=True)

Densities:
  Coarse grid: 60*35*27 grid
  Fine grid: 120*70*54 grid
  Total Charge: 0.000000

Density mixing:
  Method: difference
  Backend: pulay
  Linear mixing parameter: 0.05
  Mixing with 5 old densities
  Damping of long wave oscillations: 50

Hamiltonian:
  XC and Coulomb potentials evaluated on a 120*70*54 grid
  Using the LDA Exchange-Correlation functional

Total number of cores used: 32
Parallelization over k-points: 16
Domain decomposition: 2 x 1 x 1

Number of atoms: 28
Number of atomic orbitals: 148
Number of bands in calculation: 112
Number of valence electrons: 180
Bands to converge: occupied

... initialized

Initializing position-dependent things.

Density initialized from atomic densities
Creating initial wave functions:
  112 bands from LCAO basis set

    /|         OP              |
   / |O            O        O  |
  /  |       O            O  P |
 *   |O    Mn      O           |
 |   |          OLi          O |
 |   P--O--------------Mn------.
 |  /          Li    O  Mn  O /
 | /LiO           PO         /
 |/       Mn                /
 *Li-----------------------*

Positions:
   0 O     -1.330281   -2.539252   -1.168500    ( 0.0000,  0.0000,  0.0000)
   1 O     -3.152392    2.974909    1.200956    ( 0.0000,  0.0000,  0.0000)
   2 O      2.077234    0.510133    1.506966    ( 0.0000,  0.0000,  0.0000)
   3 O      3.899724   -0.074476   -0.862491    ( 0.0000,  0.0000,  0.0000)
   4 O      2.077424    2.974966    1.507072    ( 0.0000,  0.0000,  0.0000)
   5 O      3.889535   -2.539195   -0.862384    ( 0.0000,  0.0000,  0.0000)
   6 O     -1.330092   -0.074418   -1.168395    ( 0.0000,  0.0000,  0.0000)
   7 O     -3.152581    0.510191    1.201063    ( 0.0000,  0.0000,  0.0000)
   8 O     -4.389675   -1.306969   -0.813152    ( 0.0000,  0.0000,  0.0000)
   9 O     -0.093301    1.742683    1.556268    ( 0.0000,  0.0000,  0.0000)
  10 O      5.136817    1.742683    1.151723    ( 0.0000,  0.0000,  0.0000)
  11 O      0.840444   -1.306969   -1.217697    ( 0.0000,  0.0000,  0.0000)
  12 Mn    -2.557192   -1.307258    0.273595    ( 0.0000,  0.0000,  1.0000)
  13 Mn    -1.925535    1.742972   -2.096623    ( 0.0000,  0.0000, -1.0000)
  14 Mn     3.304335    1.742972    0.064976    ( 0.0000,  0.0000, -1.0000)
  15 Mn     2.672678   -1.307258    2.435195    ( 0.0000,  0.0000,  1.0000)
  16 P     -0.597175   -1.306854   -1.801474    ( 0.0000,  0.0000,  0.0000)
  17 P     -3.885565    1.742568    0.568028    ( 0.0000,  0.0000,  0.0000)
  18 P      1.344318    1.742568    2.140045    ( 0.0000,  0.0000,  0.0000)
  19 P      4.632708   -1.306854   -0.229456    ( 0.0000,  0.0000,  0.0000)
  20 O     -0.636957   -1.306861    1.403074    ( 0.0000,  0.0000,  0.0000)
  21 O     -3.845824    1.742575   -0.967462    ( 0.0000,  0.0000,  0.0000)
  22 O      1.384100    1.742576   -1.064503    ( 0.0000,  0.0000,  0.0000)
  23 O      4.592967   -1.306861    1.306033    ( 0.0000,  0.0000,  0.0000)
  24 Li    -4.856429   -2.832143   -2.200714    ( 0.0000,  0.0000,  0.0000)
  25 Li     0.373571   -2.832143    0.169286    ( 0.0000,  0.0000,  0.0000)
  26 Li    -4.856429    0.217857   -2.200714    ( 0.0000,  0.0000,  0.0000)
  27 Li     0.373571    0.217857    0.169286    ( 0.0000,  0.0000,  0.0000)

Unit cell:
           periodic     x           y           z      points  spacing
  1. axis:    yes   10.460000    0.000000    0.000000    60     0.1743
  2. axis:    yes    0.000000    6.100000    0.000000    35     0.1743
  3. axis:    yes    0.000000    0.000000    4.740000    27     0.1756

  Lengths:  10.460000   6.100000   4.740000
  Angles:   90.000000  90.000000  90.000000

Effective grid spacing dv^(1/3) = 0.1747

                     log10-error:           total        iterations:
           time      wfs    density  force  energy       poisson  magmom
iter:   1  03:20:08                       -220.682203             +0.0000
iter:   2  03:20:47  -0.64  -0.92         -235.490032             +0.0000
iter:   3  03:21:27  -0.40  -0.96         -226.167165             -0.0000
iter:   4  03:22:06  -1.41  -1.29         -225.887831             +0.0000
iter:   5  03:22:45  -1.19  -1.38         -227.587666             +0.0000
iter:   6  03:23:25  -1.40  -1.51         -225.828263             +0.0000
iter:   7  03:24:04  -2.57  -2.06         -225.898711             +0.0000
iter:   8  03:24:43  -2.23  -2.01         -225.639947             -0.0000
iter:   9  03:25:23  -2.68  -2.09         -225.546432             +0.0000
iter:  10  03:26:02  -3.56  -2.95         -225.545846             +0.0000
iter:  11  03:26:41  -3.95  -3.00         -225.547099             +0.0000
iter:  12  03:27:21  -4.29  -3.22         -225.547293             +0.0000
iter:  13  03:28:00  -5.38  -3.36         -225.547180             -0.0000
iter:  14  03:28:39  -5.20  -3.44         -225.547016             -0.0000
iter:  15  03:29:18  -5.39  -3.60         -225.546942             -0.0000
iter:  16  03:29:58  -6.30  -3.67         -225.546927             +0.0000
iter:  17  03:30:37  -6.19  -3.74         -225.546946             -0.0000
iter:  18  03:31:16  -6.76  -3.81         -225.546947             -0.0000
iter:  19  03:31:56  -5.85  -3.82         -225.546908             -0.0000
iter:  20  03:32:35  -6.83  -4.32         -225.546908             -0.0000
iter:  21  03:33:14  -6.60  -4.54         -225.546901             -0.0000
iter:  22  03:34:04  -7.43  -4.64         -225.546899             +0.0000
iter:  23  03:34:54  -8.21  -5.03    -2.77-225.546900             -0.0000
iter:  24  03:35:44  -8.67  -5.31    -3.65-225.546901             -0.0000
iter:  25  03:36:34  -9.00  -5.38    -3.03-225.546901             -0.0000
iter:  26  03:37:24  -9.51  -5.63    -3.56-225.546901             +0.0000
iter:  27  03:38:14  -9.17  -5.69    -3.43-225.546901             +0.0000
iter:  28  03:39:04  -9.91  -5.78    -4.09-225.546901             +0.0000
iter:  29  03:39:54  -9.59  -5.83    -3.68-225.546901             +0.0000
iter:  30  03:40:43 -10.07  -6.20    -4.13-225.546901             +0.0000
iter:  31  03:41:33 -11.02  -6.27    -4.19-225.546901             +0.0000
iter:  32  03:42:23 -10.41  -6.34    -4.02-225.546901             +0.0000
iter:  33  03:43:13 -11.25  -6.59    -4.30-225.546901             +0.0000
iter:  34  03:44:03 -12.28  -7.08    -5.20-225.546901             +0.0000
iter:  35  03:44:53 -13.19  -7.18    -5.23-225.546901             +0.0000
iter:  36  03:45:43 -12.62  -7.20    -4.75-225.546901             +0.0000
iter:  37  03:46:33 -12.97  -7.38    -5.09-225.546901             +0.0000
iter:  38  03:47:23 -13.82  -7.50    -5.51-225.546901             +0.0000
iter:  39  03:48:13 -13.70  -7.51    -5.58-225.546901             +0.0000
iter:  40  03:49:03 -13.81  -7.60    -5.43-225.546901             +0.0000
iter:  41  03:49:52 -14.31  -7.71    -5.71-225.546901             +0.0000
iter:  42  03:50:42 -14.62  -7.80    -5.73-225.546901             +0.0000
iter:  43  03:51:32 -15.22  -7.89    -6.00-225.546901             +0.0000

Converged after 43 iterations.

Dipole moment: (13.165217, 1.717562, -5.510092) |e|*Ang

Total magnetic moment: (0.000000, 0.000000, 0.000000)
Local magnetic moments:
   0 O  ( 0.000000,  0.000000,  0.001079)
   1 O  ( 0.000000,  0.000000, -0.001042)
   2 O  ( 0.000000,  0.000000, -0.001098)
   3 O  ( 0.000000,  0.000000,  0.001068)
   4 O  ( 0.000000,  0.000000, -0.001079)
   5 O  ( 0.000000,  0.000000,  0.001090)
   6 O  ( 0.000000,  0.000000,  0.001070)
   7 O  ( 0.000000,  0.000000, -0.001037)
   8 O  ( 0.000000,  0.000000,  0.019702)
   9 O  ( 0.000000,  0.000000, -0.019809)
  10 O  ( 0.000000,  0.000000, -0.019762)
  11 O  ( 0.000000,  0.000000,  0.019790)
  12 Mn ( 0.000000,  0.000000,  4.601520)
  13 Mn ( 0.000000,  0.000000, -4.601590)
  14 Mn ( 0.000000,  0.000000, -4.601125)
  15 Mn ( 0.000000,  0.000000,  4.601281)
  16 P  ( 0.000000,  0.000000,  0.001306)
  17 P  ( 0.000000,  0.000000, -0.001301)
  18 P  ( 0.000000,  0.000000, -0.001293)
  19 P  ( 0.000000,  0.000000,  0.001318)
  20 O  ( 0.000000,  0.000000,  0.018098)
  21 O  ( 0.000000,  0.000000, -0.018053)
  22 O  ( 0.000000,  0.000000, -0.018110)
  23 O  ( 0.000000,  0.000000,  0.018056)
  24 Li ( 0.000000,  0.000000,  0.000003)
  25 Li ( 0.000000,  0.000000,  0.000000)
  26 Li ( 0.000000,  0.000000, -0.000002)
  27 Li ( 0.000000,  0.000000,  0.000000)

Energy contributions relative to reference atoms: (reference = -196157.275402)

Kinetic:       +242.684427
Potential:     -215.242967
External:        +0.000000
XC:            -254.903947
Entropy (-ST):   -0.000000
Local:           +1.915586
Free energy:   -225.546901
Extrapolated:  -225.546901

Spin contamination: 9.747079 electrons
Showing only first 2 kpts
                      Up                     Down
 Kpt  Band  Eigenvalues  Occupancy  Eigenvalues  Occupancy
  0    88      3.92287    0.00694      3.92592    0.00694
  0    89      3.97313    0.00694      3.97544    0.00694
  0    90      8.67139    0.00000      8.66527    0.00000
  0    91      8.68768    0.00000      8.69406    0.00000

  1    88      3.91964    0.00694      3.92248    0.00694
  1    89      3.97661    0.00694      3.97923    0.00694
  1    90      8.51659    0.00000      8.51105    0.00000
  1    91      8.53150    0.00000      8.53945    0.00000

Fermi level: 5.31857

Gap: 3.775 eV
Transition (v -> c):
  (s=1, k=74, n=89, [0.08, -0.42, 0.12]) -> (s=0, k=58, n=90, [-0.08, -0.08, 0.12])
Writing to born-0.01-5x-.gpw (mode='all')