User:   madkru@g006.nifl.fysik.dtu.dk
Date:   Wed Mar 24 22:09:11 2021
Arch:   x86_64
Pid:    12017
Python: 3.7.4
gpaw:   /home/niflheim/madkru/venv_folder/gpaw/gpaw (d224efde0f)
_gpaw:  /home/niflheim/madkru/venv_folder/gpaw/build/lib.linux-x86_64-sandybridge-3.7/
        _gpaw.cpython-37m-x86_64-linux-gnu.so (4fd39e8b1e)
ase:    /home/niflheim/madkru/venv_folder/ase/ase (version 3.21.0b1-4d5a73cb29)
numpy:  /home/niflheim/madkru/venv_folder/lib/python3.7/site-packages/numpy (version 1.19.4)
scipy:  /home/niflheim/madkru/venv_folder/lib/python3.7/site-packages/scipy (version 1.5.4)
units:  Angstrom and eV
cores: 64
OMP_NUM_THREADS: 1

Input parameters:
  convergence: {bands: occupied,
                density: 0.0001,
                eigenstates: 4e-08,
                energy: 0.0005,
                forces: 1e-06}
  kpts: [6 6 4]
  mode: {ecut: 600.0,
         gammacentered: False,
         name: pw}
  occupations: {fixmagmom: False,
                name: fermi-dirac,
                width: 0.001}
  setups: {Mn: :d,3.0}
  symmetry: {point_group: False,
             time_reversal: False}

System changes: positions, numbers, cell, pbc, initial_charges, initial_magmoms

Initialize ...

O-setup:
  name: Oxygen
  id: 9b9d51c344dea68c822856295a461509
  Z: 8.0
  valence: 6
  core: 2
  charge: 0.0
  file: /home/modules/software/GPAW-setups/0.9.20000/O.LDA.gz
  compensation charges: gauss, rc=0.21, lmax=2
  cutoffs: 1.17(filt), 0.83(core),
  valence states:
                energy  radius
    2s(2.00)   -23.752   0.688
    2p(4.00)    -9.195   0.598
    *s           3.459   0.688
    *p          18.016   0.598
    *d           0.000   0.619

  Using partial waves for O as LCAO basis

Mn-setup:
  name: Manganese
  id: 0d715a8018be061a6e9ea6f2d364ac92
  Z: 25.0
  valence: 15
  core: 10
  charge: 0.0
  Hubbard U: 3.000000 eV (l=2, scale=True)
  file: /home/modules/software/GPAW-setups/0.9.20000/Mn.LDA.gz
  compensation charges: gauss, rc=0.38, lmax=2
  cutoffs: 2.14(filt), 0.86(core),
  valence states:
                energy  radius
    3s(2.00)   -85.387   1.275
    4s(2.00)    -5.282   1.275
    3p(6.00)   -54.493   1.281
    4p(0.00)    -1.471   1.281
    3d(5.00)    -7.009   1.138
    *d          20.203   1.138

[...]

P-setup:
  name: Phosphorus
  id: a5561c299094968922a179ab894d2e2d
  Z: 15.0
  valence: 5
  core: 10
  charge: 0.0
  file: /home/modules/software/GPAW-setups/0.9.20000/P.LDA.gz
  compensation charges: gauss, rc=0.30, lmax=2
  cutoffs: 1.69(filt), 1.81(core),
  valence states:
                energy  radius
    3s(2.00)   -14.015   0.953
    3p(3.00)    -5.596   0.953
    *s          13.197   0.953
    *p          21.615   0.953
    *d           0.000   0.953

[...]

Li-setup:
  name: Lithium
  id: b73562207f97a71b6967473b66fe8b65
  Z: 3.0
  valence: 1
  core: 2
  charge: 0.0
  file: /home/modules/software/GPAW-setups/0.9.20000/Li.LDA.gz
  compensation charges: gauss, rc=0.33, lmax=2
  cutoffs: 1.91(filt), 2.55(core),
  valence states:
                energy  radius
    2s(1.00)    -2.874   1.058
    2p(0.00)    -1.126   1.058
    *s          24.338   1.058

  Using partial waves for Li as LCAO basis

Reference energy: -196157.275402

Spin-polarized calculation.
Magnetic moment: 0.000000

Convergence criteria:
  Maximum total energy change: 0.0005 eV / electron
  Maximum integral of absolute density change: 0.0001 electrons
  Maximum integral of absolute eigenstate change: 4e-08 eV^2
  Maximum change in atomic force: 1e-06 eV / Ang
  Maximum number of iterations: 333

Symmetries present (total): 1

  ( 1  0  0)
  ( 0  1  0)
  ( 0  0  1)

144 k-points: 6 x 6 x 4 Monkhorst-Pack grid
144 k-points in the irreducible part of the Brillouin zone
       k-points in crystal coordinates                weights
   0:    -0.41666667   -0.41666667   -0.37500000          1/144
   1:    -0.41666667   -0.41666667   -0.12500000          1/144
   2:    -0.41666667   -0.41666667    0.12500000          1/144
   3:    -0.41666667   -0.41666667    0.37500000          1/144
   4:    -0.41666667   -0.25000000   -0.37500000          1/144
   5:    -0.41666667   -0.25000000   -0.12500000          1/144
   6:    -0.41666667   -0.25000000    0.12500000          1/144
   7:    -0.41666667   -0.25000000    0.37500000          1/144
   8:    -0.41666667   -0.08333333   -0.37500000          1/144
   9:    -0.41666667   -0.08333333   -0.12500000          1/144
          ...
 143:     0.41666667    0.41666667    0.37500000          1/144

Wave functions: Plane wave expansion
  Cutoff energy: 600.000 eV
  Number of coefficients (min, max): 10068, 10125
  Pulay-stress correction: 0.000000 eV/Ang^3 (de/decut=0.000000)
  Using FFTW library
  ScaLapack parameters: grid=1x1, blocksize=None
  Wavefunction extrapolation:
    Improved wavefunction reuse through dual PAW basis

  Fermi-Dirac: width=0.0010 eV

Eigensolver
   Davidson(niter=2, smin=None, normalize=True)

Densities:
  Coarse grid: 60*35*27 grid
  Fine grid: 120*70*54 grid
  Total Charge: 0.000000

Density mixing:
  Method: difference
  Backend: pulay
  Linear mixing parameter: 0.05
  Mixing with 5 old densities
  Damping of long wave oscillations: 50

Hamiltonian:
  XC and Coulomb potentials evaluated on a 120*70*54 grid
  Using the LDA Exchange-Correlation functional

Total number of cores used: 64
Parallelization over k-points: 16
Domain decomposition: 2 x 2 x 1

Number of atoms: 28
Number of atomic orbitals: 148
Number of bands in calculation: 112
Number of valence electrons: 180
Bands to converge: occupied

... initialized

Initializing position-dependent things.

Density initialized from atomic densities
Creating initial wave functions:
  112 bands from LCAO basis set

    /|         OP              |
   / |O            O        O  |
  /  |       O            O  P |
 *   |O    Mn      O           |
 |   |          OLi          O |
 |   P--O--------------Mn------.
 |  /          Li    O  Mn  O /
 | /LiO           PO         /
 |/       Mn                /
 *Li-----------------------*

Positions:
   0 O     -1.330281   -2.539252   -1.168500    ( 0.0000,  0.0000,  0.0000)
   1 O     -3.152392    2.974909    1.200956    ( 0.0000,  0.0000,  0.0000)
   2 O      2.077234    0.510133    1.506966    ( 0.0000,  0.0000,  0.0000)
   3 O      3.899724   -0.074476   -0.862491    ( 0.0000,  0.0000,  0.0000)
   4 O      2.077424    2.974966    1.507072    ( 0.0000,  0.0000,  0.0000)
   5 O      3.899535   -2.539195   -0.862384    ( 0.0000,  0.0000,  0.0000)
   6 O     -1.330092   -0.074418   -1.168395    ( 0.0000,  0.0000,  0.0000)
   7 O     -3.152581    0.510191    1.201063    ( 0.0000,  0.0000,  0.0000)
   8 O     -4.389675   -1.306969   -0.813152    ( 0.0000,  0.0000,  0.0000)
   9 O     -0.093301    1.742683    1.556268    ( 0.0000,  0.0000,  0.0000)
  10 O      5.136817    1.742683    1.151723    ( 0.0000,  0.0000,  0.0000)
  11 O      0.840444   -1.306969   -1.217697    ( 0.0000,  0.0000,  0.0000)
  12 Mn    -2.557192   -1.307258    0.273595    ( 0.0000,  0.0000,  1.0000)
  13 Mn    -1.925535    1.742972   -2.096623    ( 0.0000,  0.0000, -1.0000)
  14 Mn     3.304335    1.742972    0.064976    ( 0.0000,  0.0000, -1.0000)
  15 Mn     2.672678   -1.307258    2.435195    ( 0.0000,  0.0000,  1.0000)
  16 P     -0.597175   -1.306854   -1.801474    ( 0.0000,  0.0000,  0.0000)
  17 P     -3.885565    1.742568    0.568028    ( 0.0000,  0.0000,  0.0000)
  18 P      1.344318    1.742568    2.140045    ( 0.0000,  0.0000,  0.0000)
  19 P      4.632708   -1.306854   -0.229456    ( 0.0000,  0.0000,  0.0000)
  20 O     -0.636957   -1.306861    1.413074    ( 0.0000,  0.0000,  0.0000)
  21 O     -3.845824    1.742575   -0.967462    ( 0.0000,  0.0000,  0.0000)
  22 O      1.384100    1.742576   -1.064503    ( 0.0000,  0.0000,  0.0000)
  23 O      4.592967   -1.306861    1.306033    ( 0.0000,  0.0000,  0.0000)
  24 Li    -4.856429   -2.832143   -2.200714    ( 0.0000,  0.0000,  0.0000)
  25 Li     0.373571   -2.832143    0.169286    ( 0.0000,  0.0000,  0.0000)
  26 Li    -4.856429    0.217857   -2.200714    ( 0.0000,  0.0000,  0.0000)
  27 Li     0.373571    0.217857    0.169286    ( 0.0000,  0.0000,  0.0000)

Unit cell:
           periodic     x           y           z      points  spacing
  1. axis:    yes   10.460000    0.000000    0.000000    60     0.1743
  2. axis:    yes    0.000000    6.100000    0.000000    35     0.1743
  3. axis:    yes    0.000000    0.000000    4.740000    27     0.1756

  Lengths:  10.460000   6.100000   4.740000
  Angles:   90.000000  90.000000  90.000000

Effective grid spacing dv^(1/3) = 0.1747

                     log10-error:           total        iterations:
           time      wfs    density  force  energy       poisson  magmom
iter:   1  22:10:46                       -220.686421             +0.0000
iter:   2  22:11:07  -0.64  -0.92         -235.506771             +0.0000
iter:   3  22:11:29  -0.40  -0.96         -226.167712             -0.0000
iter:   4  22:11:50  -1.41  -1.29         -225.885976             +0.0000
iter:   5  22:12:11  -1.19  -1.38         -227.588861             +0.0000
iter:   6  22:12:33  -1.40  -1.51         -225.826891             +0.0000
iter:   7  22:12:54  -2.58  -2.06         -225.899367             +0.0000
iter:   8  22:13:16  -2.22  -2.01         -225.632192             -0.0000
iter:   9  22:13:37  -2.70  -2.10         -225.545037             +0.0000
iter:  10  22:13:58  -3.58  -2.96         -225.544641             +0.0000
iter:  11  22:14:20  -3.96  -3.00         -225.545609             +0.0000
iter:  12  22:14:41  -4.28  -3.23         -225.545820             +0.0000
iter:  13  22:15:03  -5.37  -3.36         -225.545696             -0.0000
iter:  14  22:15:24  -5.20  -3.44         -225.545514             -0.0000
iter:  15  22:15:45  -5.37  -3.61         -225.545445             -0.0000
iter:  16  22:16:07  -6.20  -3.66         -225.545429             +0.0000
iter:  17  22:16:28  -6.22  -3.74         -225.545445             -0.0000
iter:  18  22:16:49  -6.80  -3.81         -225.545446             -0.0000
iter:  19  22:17:11  -5.91  -3.83         -225.545409             -0.0000
iter:  20  22:17:32  -6.81  -4.26         -225.545412             -0.0000
iter:  21  22:17:54  -6.19  -4.42         -225.545403             -0.0000
iter:  22  22:18:15  -6.62  -4.54         -225.545394             -0.0000
iter:  23  22:18:36  -7.15  -4.88         -225.545404             -0.0000
iter:  24  22:19:03  -8.71  -5.05         -225.545404             -0.0000
iter:  25  22:19:30  -7.98  -5.09    -3.28-225.545403             -0.0000
iter:  26  22:19:57  -8.44  -5.25    -3.00-225.545403             -0.0000
iter:  27  22:20:23  -9.78  -5.27    -3.69-225.545403             -0.0000
iter:  28  22:20:50  -8.37  -5.30    -3.58-225.545403             -0.0000
iter:  29  22:21:17  -9.24  -5.41    -3.42-225.545403             -0.0000
iter:  30  22:21:44  -9.41  -5.51    -3.56-225.545403             -0.0000
iter:  31  22:22:11 -10.10  -5.65    -4.26-225.545403             -0.0000
iter:  32  22:22:37  -8.88  -5.68    -3.89-225.545403             -0.0000
iter:  33  22:23:04 -10.24  -6.02    -4.29-225.545403             -0.0000
iter:  34  22:23:31  -9.86  -6.07    -4.01-225.545403             -0.0000
iter:  35  22:23:58 -11.22  -6.15    -4.79-225.545403             -0.0000
iter:  36  22:24:24  -9.98  -6.17    -4.29-225.545403             -0.0000
iter:  37  22:24:51 -10.04  -6.27    -3.87-225.545403             -0.0000
iter:  38  22:25:18 -10.90  -6.41    -4.67-225.545403             -0.0000
iter:  39  22:25:45 -11.21  -6.62    -5.01-225.545403             -0.0000
iter:  40  22:26:11 -11.84  -6.71    -4.82-225.545403             -0.0000
iter:  41  22:26:38 -11.27  -6.71    -4.86-225.545403             -0.0000
iter:  42  22:27:05 -12.25  -6.88    -5.45-225.545403             -0.0000
iter:  43  22:27:32 -12.13  -6.90    -5.17-225.545403             +0.0000
iter:  44  22:27:58 -11.69  -7.01    -4.95-225.545403             -0.0000
iter:  45  22:28:25 -12.90  -7.64    -6.02-225.545403             -0.0000

Converged after 45 iterations.

Dipole moment: (13.149908, 1.716738, -5.521811) |e|*Ang

Total magnetic moment: (0.000000, 0.000000, -0.000000)
Local magnetic moments:
   0 O  ( 0.000000,  0.000000,  0.001114)
   1 O  ( 0.000000,  0.000000, -0.001077)
   2 O  ( 0.000000,  0.000000, -0.001063)
   3 O  ( 0.000000,  0.000000,  0.001043)
   4 O  ( 0.000000,  0.000000, -0.001071)
   5 O  ( 0.000000,  0.000000,  0.001051)
   6 O  ( 0.000000,  0.000000,  0.001106)
   7 O  ( 0.000000,  0.000000, -0.001069)
   8 O  ( 0.000000,  0.000000,  0.019866)
   9 O  ( 0.000000,  0.000000, -0.019781)
  10 O  ( 0.000000,  0.000000, -0.019778)
  11 O  ( 0.000000,  0.000000,  0.019757)
  12 Mn ( 0.000000,  0.000000,  4.601809)
  13 Mn ( 0.000000,  0.000000, -4.601561)
  14 Mn ( 0.000000,  0.000000, -4.601531)
  15 Mn ( 0.000000,  0.000000,  4.601567)
  16 P  ( 0.000000,  0.000000,  0.001237)
  17 P  ( 0.000000,  0.000000, -0.001313)
  18 P  ( 0.000000,  0.000000, -0.001299)
  19 P  ( 0.000000,  0.000000,  0.001295)
  20 O  ( 0.000000,  0.000000,  0.017944)
  21 O  ( 0.000000,  0.000000, -0.018064)
  22 O  ( 0.000000,  0.000000, -0.018074)
  23 O  ( 0.000000,  0.000000,  0.018059)
  24 Li ( 0.000000,  0.000000, -0.000000)
  25 Li ( 0.000000,  0.000000, -0.000009)
  26 Li ( 0.000000,  0.000000, -0.000000)
  27 Li ( 0.000000,  0.000000, -0.000009)

Energy contributions relative to reference atoms: (reference = -196157.275402)

Kinetic:       +243.689845
Potential:     -216.026676
External:        +0.000000
XC:            -255.121952
Entropy (-ST):   -0.000000
Local:           +1.913380
Free energy:   -225.545403
Extrapolated:  -225.545403

Spin contamination: 9.747425 electrons
Showing only first 2 kpts
                      Up                     Down
 Kpt  Band  Eigenvalues  Occupancy  Eigenvalues  Occupancy
  0    88      3.91446    0.00694      3.92353    0.00694
  0    89      3.96644    0.00694      3.97212    0.00694
  0    90      8.66762    0.00000      8.66513    0.00000
  0    91      8.68830    0.00000      8.68643    0.00000

  1    88      3.91114    0.00694      3.92006    0.00694
  1    89      3.96991    0.00694      3.97604    0.00694
  1    90      8.51362    0.00000      8.51136    0.00000
  1    91      8.53093    0.00000      8.52965    0.00000

Fermi level: 5.31825

Gap: 3.780 eV
Transition (v -> c):
  (s=1, k=70, n=89, [-0.08, 0.42, 0.12]) -> (s=1, k=58, n=90, [-0.08, -0.08, 0.12])
Writing to born-0.01-20z+.gpw (mode='all')