User:   madkru@g006.nifl.fysik.dtu.dk
Date:   Wed Mar 24 08:14:27 2021
Arch:   x86_64
Pid:    12017
Python: 3.7.4
gpaw:   /home/niflheim/madkru/venv_folder/gpaw/gpaw (d0d1ca1c71)
_gpaw:  /home/niflheim/madkru/venv_folder/gpaw/build/lib.linux-x86_64-sandybridge-3.7/
        _gpaw.cpython-37m-x86_64-linux-gnu.so (4fd39e8b1e)
ase:    /home/niflheim/madkru/venv_folder/ase/ase (version 3.21.0b1-7e6c206a91)
numpy:  /home/niflheim/madkru/venv_folder/lib/python3.7/site-packages/numpy (version 1.19.4)
scipy:  /home/niflheim/madkru/venv_folder/lib/python3.7/site-packages/scipy (version 1.5.4)
units:  Angstrom and eV
cores: 64
OMP_NUM_THREADS: 1

Input parameters:
  convergence: {bands: occupied,
                density: 0.0001,
                eigenstates: 4e-08,
                energy: 0.0005,
                forces: 1e-06}
  kpts: [6 6 4]
  mode: {ecut: 600.0,
         gammacentered: False,
         name: pw}
  occupations: {fixmagmom: False,
                name: fermi-dirac,
                width: 0.001}
  setups: {Mn: :d,3.0}
  symmetry: {point_group: False,
             time_reversal: False}

System changes: positions, numbers, cell, pbc, initial_charges, initial_magmoms

Initialize ...

O-setup:
  name: Oxygen
  id: 9b9d51c344dea68c822856295a461509
  Z: 8.0
  valence: 6
  core: 2
  charge: 0.0
  file: /home/modules/software/GPAW-setups/0.9.20000/O.LDA.gz
  compensation charges: gauss, rc=0.21, lmax=2
  cutoffs: 1.17(filt), 0.83(core),
  valence states:
                energy  radius
    2s(2.00)   -23.752   0.688
    2p(4.00)    -9.195   0.598
    *s           3.459   0.688
    *p          18.016   0.598
    *d           0.000   0.619

  Using partial waves for O as LCAO basis

Mn-setup:
  name: Manganese
  id: 0d715a8018be061a6e9ea6f2d364ac92
  Z: 25.0
  valence: 15
  core: 10
  charge: 0.0
  Hubbard U: 3.000000 eV (l=2, scale=True)
  file: /home/modules/software/GPAW-setups/0.9.20000/Mn.LDA.gz
  compensation charges: gauss, rc=0.38, lmax=2
  cutoffs: 2.14(filt), 0.86(core),
  valence states:
                energy  radius
    3s(2.00)   -85.387   1.275
    4s(2.00)    -5.282   1.275
    3p(6.00)   -54.493   1.281
    4p(0.00)    -1.471   1.281
    3d(5.00)    -7.009   1.138
    *d          20.203   1.138

[...]

P-setup:
  name: Phosphorus
  id: a5561c299094968922a179ab894d2e2d
  Z: 15.0
  valence: 5
  core: 10
  charge: 0.0
  file: /home/modules/software/GPAW-setups/0.9.20000/P.LDA.gz
  compensation charges: gauss, rc=0.30, lmax=2
  cutoffs: 1.69(filt), 1.81(core),
  valence states:
                energy  radius
    3s(2.00)   -14.015   0.953
    3p(3.00)    -5.596   0.953
    *s          13.197   0.953
    *p          21.615   0.953
    *d           0.000   0.953

[...]

Li-setup:
  name: Lithium
  id: b73562207f97a71b6967473b66fe8b65
  Z: 3.0
  valence: 1
  core: 2
  charge: 0.0
  file: /home/modules/software/GPAW-setups/0.9.20000/Li.LDA.gz
  compensation charges: gauss, rc=0.33, lmax=2
  cutoffs: 1.91(filt), 2.55(core),
  valence states:
                energy  radius
    2s(1.00)    -2.874   1.058
    2p(0.00)    -1.126   1.058
    *s          24.338   1.058

  Using partial waves for Li as LCAO basis

Reference energy: -196157.275402

Spin-polarized calculation.
Magnetic moment: 0.000000

Convergence criteria:
  Maximum total energy change: 0.0005 eV / electron
  Maximum integral of absolute density change: 0.0001 electrons
  Maximum integral of absolute eigenstate change: 4e-08 eV^2
  Maximum change in atomic force: 1e-06 eV / Ang
  Maximum number of iterations: 333

Symmetries present (total): 1

  ( 1  0  0)
  ( 0  1  0)
  ( 0  0  1)

144 k-points: 6 x 6 x 4 Monkhorst-Pack grid
144 k-points in the irreducible part of the Brillouin zone
       k-points in crystal coordinates                weights
   0:    -0.41666667   -0.41666667   -0.37500000          1/144
   1:    -0.41666667   -0.41666667   -0.12500000          1/144
   2:    -0.41666667   -0.41666667    0.12500000          1/144
   3:    -0.41666667   -0.41666667    0.37500000          1/144
   4:    -0.41666667   -0.25000000   -0.37500000          1/144
   5:    -0.41666667   -0.25000000   -0.12500000          1/144
   6:    -0.41666667   -0.25000000    0.12500000          1/144
   7:    -0.41666667   -0.25000000    0.37500000          1/144
   8:    -0.41666667   -0.08333333   -0.37500000          1/144
   9:    -0.41666667   -0.08333333   -0.12500000          1/144
          ...
 143:     0.41666667    0.41666667    0.37500000          1/144

Wave functions: Plane wave expansion
  Cutoff energy: 600.000 eV
  Number of coefficients (min, max): 10068, 10125
  Pulay-stress correction: 0.000000 eV/Ang^3 (de/decut=0.000000)
  Using FFTW library
  ScaLapack parameters: grid=1x1, blocksize=None
  Wavefunction extrapolation:
    Improved wavefunction reuse through dual PAW basis

  Fermi-Dirac: width=0.0010 eV

Eigensolver
   Davidson(niter=2, smin=None, normalize=True)

Densities:
  Coarse grid: 60*35*27 grid
  Fine grid: 120*70*54 grid
  Total Charge: 0.000000

Density mixing:
  Method: difference
  Backend: pulay
  Linear mixing parameter: 0.05
  Mixing with 5 old densities
  Damping of long wave oscillations: 50

Hamiltonian:
  XC and Coulomb potentials evaluated on a 120*70*54 grid
  Using the LDA Exchange-Correlation functional

Total number of cores used: 64
Parallelization over k-points: 16
Domain decomposition: 2 x 2 x 1

Number of atoms: 28
Number of atomic orbitals: 148
Number of bands in calculation: 112
Number of valence electrons: 180
Bands to converge: occupied

... initialized

Initializing position-dependent things.

Density initialized from atomic densities
Creating initial wave functions:
  112 bands from LCAO basis set

    /|         OP              |
   / |O            O        O  |
  /  |       O            O  P |
 *   |O    Mn      O           |
 |   |          OLi          O |
 |   P--O--------------Mn------.
 |  /          Li    O  Mn  O /
 | /LiO           PO         /
 |/       Mn                /
 *Li-----------------------*

Positions:
   0 O     -1.330281   -2.539252   -1.168500    ( 0.0000,  0.0000,  0.0000)
   1 O     -3.152392    2.974909    1.200956    ( 0.0000,  0.0000,  0.0000)
   2 O      2.077234    0.510133    1.506966    ( 0.0000,  0.0000,  0.0000)
   3 O      3.899724   -0.074476   -0.862491    ( 0.0000,  0.0000,  0.0000)
   4 O      2.077424    2.974966    1.507072    ( 0.0000,  0.0000,  0.0000)
   5 O      3.899535   -2.539195   -0.862384    ( 0.0000,  0.0000,  0.0000)
   6 O     -1.330092   -0.074418   -1.168395    ( 0.0000,  0.0000,  0.0000)
   7 O     -3.152581    0.510191    1.201063    ( 0.0000,  0.0000,  0.0000)
   8 O     -4.389675   -1.306969   -0.813152    ( 0.0000,  0.0000,  0.0000)
   9 O     -0.093301    1.742683    1.556268    ( 0.0000,  0.0000,  0.0000)
  10 O      5.136817    1.742683    1.151723    ( 0.0000,  0.0000,  0.0000)
  11 O      0.840444   -1.306969   -1.217697    ( 0.0000,  0.0000,  0.0000)
  12 Mn    -2.557192   -1.307258    0.273595    ( 0.0000,  0.0000,  1.0000)
  13 Mn    -1.925535    1.742972   -2.096623    ( 0.0000,  0.0000, -1.0000)
  14 Mn     3.304335    1.742972    0.064976    ( 0.0000,  0.0000, -1.0000)
  15 Mn     2.672678   -1.307258    2.435195    ( 0.0000,  0.0000,  1.0000)
  16 P     -0.587175   -1.306854   -1.801474    ( 0.0000,  0.0000,  0.0000)
  17 P     -3.885565    1.742568    0.568028    ( 0.0000,  0.0000,  0.0000)
  18 P      1.344318    1.742568    2.140045    ( 0.0000,  0.0000,  0.0000)
  19 P      4.632708   -1.306854   -0.229456    ( 0.0000,  0.0000,  0.0000)
  20 O     -0.636957   -1.306861    1.403074    ( 0.0000,  0.0000,  0.0000)
  21 O     -3.845824    1.742575   -0.967462    ( 0.0000,  0.0000,  0.0000)
  22 O      1.384100    1.742576   -1.064503    ( 0.0000,  0.0000,  0.0000)
  23 O      4.592967   -1.306861    1.306033    ( 0.0000,  0.0000,  0.0000)
  24 Li    -4.856429   -2.832143   -2.200714    ( 0.0000,  0.0000,  0.0000)
  25 Li     0.373571   -2.832143    0.169286    ( 0.0000,  0.0000,  0.0000)
  26 Li    -4.856429    0.217857   -2.200714    ( 0.0000,  0.0000,  0.0000)
  27 Li     0.373571    0.217857    0.169286    ( 0.0000,  0.0000,  0.0000)

Unit cell:
           periodic     x           y           z      points  spacing
  1. axis:    yes   10.460000    0.000000    0.000000    60     0.1743
  2. axis:    yes    0.000000    6.100000    0.000000    35     0.1743
  3. axis:    yes    0.000000    0.000000    4.740000    27     0.1756

  Lengths:  10.460000   6.100000   4.740000
  Angles:   90.000000  90.000000  90.000000

Effective grid spacing dv^(1/3) = 0.1747

                     log10-error:           total        iterations:
           time      wfs    density  force  energy       poisson  magmom
iter:   1  08:16:01                       -220.680096             +0.0000
iter:   2  08:16:22  -0.64  -0.92         -235.496069             +0.0000
iter:   3  08:16:44  -0.40  -0.96         -226.165070             -0.0000
iter:   4  08:17:05  -1.41  -1.29         -225.885121             +0.0000
iter:   5  08:17:26  -1.19  -1.38         -227.587970             +0.0000
iter:   6  08:17:48  -1.40  -1.51         -225.825445             +0.0000
iter:   7  08:18:09  -2.58  -2.06         -225.898887             +0.0000
iter:   8  08:18:30  -2.22  -2.01         -225.628882             -0.0000
iter:   9  08:18:52  -2.71  -2.11         -225.544255             +0.0000
iter:  10  08:19:13  -3.58  -2.96         -225.544073             +0.0000
iter:  11  08:19:35  -3.95  -3.00         -225.544765             +0.0000
iter:  12  08:19:56  -4.31  -3.23         -225.544919             +0.0000
iter:  13  08:20:17  -5.48  -3.38         -225.544823             -0.0000
iter:  14  08:20:39  -5.29  -3.44         -225.544654             -0.0000
iter:  15  08:21:00  -5.53  -3.62         -225.544622             -0.0000
iter:  16  08:21:22  -6.34  -3.65         -225.544593             +0.0000
iter:  17  08:21:43  -5.87  -3.70         -225.544618             -0.0000
iter:  18  08:22:04  -6.39  -3.78         -225.544612             -0.0000
iter:  19  08:22:26  -6.62  -3.83         -225.544579             -0.0000
iter:  20  08:22:47  -6.90  -3.95         -225.544569             -0.0000
iter:  21  08:23:08  -6.30  -4.04         -225.544583             -0.0000
iter:  22  08:23:35  -7.52  -4.23         -225.544580             +0.0000
iter:  23  08:24:02  -7.55  -4.26    -2.44-225.544574             +0.0000
iter:  24  08:24:23  -7.17  -4.32         -225.544575             -0.0000
iter:  25  08:24:45  -6.83  -4.56         -225.544566             +0.0000
iter:  26  08:25:06  -7.34  -4.72         -225.544565             +0.0000
iter:  27  08:25:33  -7.73  -4.69    -2.34-225.544565             +0.0000
iter:  28  08:26:00  -8.54  -4.84    -3.40-225.544565             +0.0000
iter:  29  08:26:26  -7.91  -4.88    -2.73-225.544564             +0.0000
iter:  30  08:26:53  -8.37  -5.00    -2.79-225.544564             +0.0000
iter:  31  08:27:20  -8.71  -5.12    -3.17-225.544564             -0.0000
iter:  32  08:27:46  -8.97  -5.18    -3.59-225.544564             -0.0000
iter:  33  08:28:13  -8.28  -5.24    -2.71-225.544564             +0.0000
iter:  34  08:28:40  -8.56  -5.33    -2.92-225.544564             +0.0000
iter:  35  08:29:07  -9.99  -6.03    -3.85-225.544564             +0.0000
iter:  36  08:29:33  -9.92  -6.06    -4.16-225.544564             +0.0000
iter:  37  08:30:00 -10.34  -6.02    -3.81-225.544564             +0.0000
iter:  38  08:30:27 -10.97  -6.18    -3.86-225.544564             +0.0000
iter:  39  08:30:54 -10.12  -6.26    -4.13-225.544564             +0.0000
iter:  40  08:31:20 -11.34  -6.43    -4.56-225.544564             +0.0000
iter:  41  08:31:47 -12.20  -6.57    -4.93-225.544564             +0.0000
iter:  42  08:32:14 -11.26  -6.62    -4.26-225.544564             +0.0000
iter:  43  08:32:40 -12.28  -6.72    -5.02-225.544564             +0.0000
iter:  44  08:33:07 -12.96  -6.73    -5.51-225.544564             +0.0000
iter:  45  08:33:34 -12.77  -6.69    -5.13-225.544564             +0.0000
iter:  46  08:34:01 -12.53  -6.80    -5.04-225.544564             +0.0000
iter:  47  08:34:27 -12.46  -6.86    -4.85-225.544564             +0.0000
iter:  48  08:34:54 -12.54  -6.93    -4.78-225.544564             +0.0000
iter:  49  08:35:21 -13.00  -7.04    -5.33-225.544564             +0.0000
iter:  50  08:35:48 -13.23  -7.06    -5.13-225.544564             +0.0000
iter:  51  08:36:14 -12.81  -7.07    -5.36-225.544564             +0.0000
iter:  52  08:36:41 -13.89  -7.13    -5.57-225.544564             +0.0000
iter:  53  08:37:08 -13.02  -7.16    -5.01-225.544564             +0.0000
iter:  54  08:37:35 -12.67  -7.25    -5.48-225.544564             +0.0000
iter:  55  08:38:01 -13.57  -7.31    -5.97-225.544564             +0.0000
iter:  56  08:38:28 -13.66  -7.35    -6.08-225.544564             +0.0000

Converged after 56 iterations.

Dipole moment: (13.321654, 1.725209, -5.512020) |e|*Ang

Total magnetic moment: (0.000000, 0.000000, 0.000000)
Local magnetic moments:
   0 O  ( 0.000000,  0.000000,  0.000936)
   1 O  ( 0.000000,  0.000000, -0.001073)
   2 O  ( 0.000000,  0.000000, -0.001001)
   3 O  ( 0.000000,  0.000000,  0.001090)
   4 O  ( 0.000000,  0.000000, -0.001010)
   5 O  ( 0.000000,  0.000000,  0.001098)
   6 O  ( 0.000000,  0.000000,  0.000928)
   7 O  ( 0.000000,  0.000000, -0.001065)
   8 O  ( 0.000000,  0.000000,  0.019731)
   9 O  ( 0.000000,  0.000000, -0.019696)
  10 O  ( 0.000000,  0.000000, -0.019840)
  11 O  ( 0.000000,  0.000000,  0.019632)
  12 Mn ( 0.000000,  0.000000,  4.601648)
  13 Mn ( 0.000000,  0.000000, -4.601477)
  14 Mn ( 0.000000,  0.000000, -4.601518)
  15 Mn ( 0.000000,  0.000000,  4.601677)
  16 P  ( 0.000000,  0.000000,  0.001405)
  17 P  ( 0.000000,  0.000000, -0.001291)
  18 P  ( 0.000000,  0.000000, -0.001320)
  19 P  ( 0.000000,  0.000000,  0.001298)
  20 O  ( 0.000000,  0.000000,  0.017941)
  21 O  ( 0.000000,  0.000000, -0.018058)
  22 O  ( 0.000000,  0.000000, -0.018058)
  23 O  ( 0.000000,  0.000000,  0.018143)
  24 Li ( 0.000000,  0.000000,  0.000000)
  25 Li ( 0.000000,  0.000000, -0.000010)
  26 Li ( 0.000000,  0.000000,  0.000000)
  27 Li ( 0.000000,  0.000000, -0.000010)

Energy contributions relative to reference atoms: (reference = -196157.275402)

Kinetic:       +242.980386
Potential:     -215.472580
External:        +0.000000
XC:            -254.967646
Entropy (-ST):   -0.000000
Local:           +1.915276
Free energy:   -225.544564
Extrapolated:  -225.544564

Spin contamination: 9.747375 electrons
Showing only first 2 kpts
                      Up                     Down
 Kpt  Band  Eigenvalues  Occupancy  Eigenvalues  Occupancy
  0    88      3.91006    0.00694      3.92624    0.00694
  0    89      3.97075    0.00694      3.98012    0.00694
  0    90      8.66440    0.00000      8.66251    0.00000
  0    91      8.70155    0.00000      8.69113    0.00000

  1    88      3.90673    0.00694      3.92312    0.00694
  1    89      3.97476    0.00694      3.98345    0.00694
  1    90      8.50945    0.00000      8.50585    0.00000
  1    91      8.54404    0.00000      8.54122    0.00000

Fermi level: 5.31856

Gap: 3.773 eV
Transition (v -> c):
  (s=1, k=70, n=89, [-0.08, 0.42, 0.12]) -> (s=0, k=86, n=90, [0.08, 0.08, 0.12])
Writing to born-0.01-16x+.gpw (mode='all')