User:   madkru@g031.nifl.fysik.dtu.dk
Date:   Mon Mar 29 19:51:18 2021
Arch:   x86_64
Pid:    42907
Python: 3.8.6
gpaw:   /home/niflheim/madkru/venv_madkru/gpaw/gpaw (e6f0d78a31)
_gpaw:  /home/niflheim/madkru/venv_madkru/gpaw/build/lib.linux-x86_64-sandybridge-3.8/
        _gpaw.cpython-38-x86_64-linux-gnu.so (e6f0d78a31)
ase:    /home/niflheim/madkru/venv_madkru/ase/ase (version 3.22.0b1-4d5a73cb29)
numpy:  /home/modules/software/SciPy-bundle/2020.11-foss-2020b/lib/python3.8/site-packages/numpy (version 1.19.4)
scipy:  /home/modules/software/SciPy-bundle/2020.11-foss-2020b/lib/python3.8/site-packages/scipy (version 1.5.4)
units:  Angstrom and eV
cores: 64
OpenMP: False
OMP_NUM_THREADS: 1

Input parameters:
  convergence: {bands: occupied,
                density: 0.0001,
                eigenstates: 4e-08,
                energy: 0.0005,
                forces: 1e-06}
  kpts: [6 6 4]
  mode: {ecut: 600.0,
         gammacentered: False,
         name: pw}
  occupations: {fixmagmom: False,
                name: fermi-dirac,
                width: 0.001}
  setups: {Mn: :d,3.0}
  symmetry: {point_group: False,
             time_reversal: False}

System changes: positions, numbers, cell, pbc, initial_charges, initial_magmoms

Initialize ...

O-setup:
  name: Oxygen
  id: 9b9d51c344dea68c822856295a461509
  Z: 8.0
  valence: 6
  core: 2
  charge: 0.0
  file: /home/modules/software/GPAW-setups/0.9.20000/O.LDA.gz
  compensation charges: gauss, rc=0.21, lmax=2
  cutoffs: 1.17(filt), 0.83(core),
  valence states:
                energy  radius
    2s(2.00)   -23.752   0.688
    2p(4.00)    -9.195   0.598
    *s           3.459   0.688
    *p          18.016   0.598
    *d           0.000   0.619

  Using partial waves for O as LCAO basis

Mn-setup:
  name: Manganese
  id: 0d715a8018be061a6e9ea6f2d364ac92
  Z: 25.0
  valence: 15
  core: 10
  charge: 0.0
  Hubbard U: 3.000000 eV (l=2, scale=True)
  file: /home/modules/software/GPAW-setups/0.9.20000/Mn.LDA.gz
  compensation charges: gauss, rc=0.38, lmax=2
  cutoffs: 2.14(filt), 0.86(core),
  valence states:
                energy  radius
    3s(2.00)   -85.387   1.275
    4s(2.00)    -5.282   1.275
    3p(6.00)   -54.493   1.281
    4p(0.00)    -1.471   1.281
    3d(5.00)    -7.009   1.138
    *d          20.203   1.138

[...]

P-setup:
  name: Phosphorus
  id: a5561c299094968922a179ab894d2e2d
  Z: 15.0
  valence: 5
  core: 10
  charge: 0.0
  file: /home/modules/software/GPAW-setups/0.9.20000/P.LDA.gz
  compensation charges: gauss, rc=0.30, lmax=2
  cutoffs: 1.69(filt), 1.81(core),
  valence states:
                energy  radius
    3s(2.00)   -14.015   0.953
    3p(3.00)    -5.596   0.953
    *s          13.197   0.953
    *p          21.615   0.953
    *d           0.000   0.953

[...]

Li-setup:
  name: Lithium
  id: b73562207f97a71b6967473b66fe8b65
  Z: 3.0
  valence: 1
  core: 2
  charge: 0.0
  file: /home/modules/software/GPAW-setups/0.9.20000/Li.LDA.gz
  compensation charges: gauss, rc=0.33, lmax=2
  cutoffs: 1.91(filt), 2.55(core),
  valence states:
                energy  radius
    2s(1.00)    -2.874   1.058
    2p(0.00)    -1.126   1.058
    *s          24.338   1.058

  Using partial waves for Li as LCAO basis

Reference energy: -196157.275402

Spin-polarized calculation.
Magnetic moment: 0.000000

Convergence criteria:
  Maximum total energy change: 0.0005 eV / electron
  Maximum integral of absolute density change: 0.0001 electrons
  Maximum integral of absolute eigenstate change: 4e-08 eV^2
  Maximum change in atomic force: 1e-06 eV / Ang
  Maximum number of iterations: 333

Symmetries present (total): 1

  ( 1  0  0)
  ( 0  1  0)
  ( 0  0  1)

144 k-points: 6 x 6 x 4 Monkhorst-Pack grid
144 k-points in the irreducible part of the Brillouin zone
       k-points in crystal coordinates                weights
   0:    -0.41666667   -0.41666667   -0.37500000          1/144
   1:    -0.41666667   -0.41666667   -0.12500000          1/144
   2:    -0.41666667   -0.41666667    0.12500000          1/144
   3:    -0.41666667   -0.41666667    0.37500000          1/144
   4:    -0.41666667   -0.25000000   -0.37500000          1/144
   5:    -0.41666667   -0.25000000   -0.12500000          1/144
   6:    -0.41666667   -0.25000000    0.12500000          1/144
   7:    -0.41666667   -0.25000000    0.37500000          1/144
   8:    -0.41666667   -0.08333333   -0.37500000          1/144
   9:    -0.41666667   -0.08333333   -0.12500000          1/144
          ...
 143:     0.41666667    0.41666667    0.37500000          1/144

Wave functions: Plane wave expansion
  Cutoff energy: 600.000 eV
  Number of coefficients (min, max): 10068, 10125
  Pulay-stress correction: 0.000000 eV/Ang^3 (de/decut=0.000000)
  Using FFTW library
  ScaLapack parameters: grid=1x1, blocksize=None
  Wavefunction extrapolation:
    Improved wavefunction reuse through dual PAW basis

  Fermi-Dirac: width=0.0010 eV

Eigensolver
   Davidson(niter=2)

Densities:
  Coarse grid: 60*35*27 grid
  Fine grid: 120*70*54 grid
  Total Charge: 0.000000

Density mixing:
  Method: difference
  Backend: pulay
  Linear mixing parameter: 0.05
  Mixing with 5 old densities
  Damping of long wave oscillations: 50

Hamiltonian:
  XC and Coulomb potentials evaluated on a 120*70*54 grid
  Using the LDA Exchange-Correlation functional

Total number of cores used: 64
Parallelization over k-points: 16
Domain decomposition: 2 x 2 x 1

Number of atoms: 28
Number of atomic orbitals: 148
Number of bands in calculation: 112
Number of valence electrons: 180
Bands to converge: occupied

... initialized

Initializing position-dependent things.

Density initialized from atomic densities
Creating initial wave functions:
  112 bands from LCAO basis set

    /|         OP              |
   / |O            O        O  |
  /  |       O            O  P |
 *   |O    Mn      O           |
 |   |          OLi          O |
 |   P--O--------------Mn------.
 |  /          Li    O  Mn  O /
 | /LiO           PO         /
 |/       Mn                /
 *Li-----------------------*

Positions:
   0 O     -1.330281   -2.539252   -1.168500    ( 0.0000,  0.0000,  0.0000)
   1 O     -3.152392    2.974909    1.200956    ( 0.0000,  0.0000,  0.0000)
   2 O      2.077234    0.510133    1.506966    ( 0.0000,  0.0000,  0.0000)
   3 O      3.899724   -0.074476   -0.862491    ( 0.0000,  0.0000,  0.0000)
   4 O      2.077424    2.974966    1.507072    ( 0.0000,  0.0000,  0.0000)
   5 O      3.899535   -2.539195   -0.862384    ( 0.0000,  0.0000,  0.0000)
   6 O     -1.330092   -0.074418   -1.168395    ( 0.0000,  0.0000,  0.0000)
   7 O     -3.152581    0.510191    1.201063    ( 0.0000,  0.0000,  0.0000)
   8 O     -4.389675   -1.306969   -0.813152    ( 0.0000,  0.0000,  0.0000)
   9 O     -0.093301    1.742683    1.556268    ( 0.0000,  0.0000,  0.0000)
  10 O      5.136817    1.742683    1.151723    ( 0.0000,  0.0000,  0.0000)
  11 O      0.840444   -1.306969   -1.217697    ( 0.0000,  0.0000,  0.0000)
  12 Mn    -2.557192   -1.307258    0.273595    ( 0.0000,  0.0000,  1.0000)
  13 Mn    -1.925535    1.742972   -2.096623    ( 0.0000,  0.0000, -1.0000)
  14 Mn     3.304335    1.742972    0.064976    ( 0.0000,  0.0000, -1.0000)
  15 Mn     2.672678   -1.307258    2.435195    ( 0.0000,  0.0000,  1.0000)
  16 P     -0.597175   -1.306854   -1.801474    ( 0.0000,  0.0000,  0.0000)
  17 P     -3.885565    1.742568    0.568028    ( 0.0000,  0.0000,  0.0000)
  18 P      1.344318    1.742568    2.140045    ( 0.0000,  0.0000,  0.0000)
  19 P      4.632708   -1.306854   -0.229456    ( 0.0000,  0.0000,  0.0000)
  20 O     -0.636957   -1.306861    1.403074    ( 0.0000,  0.0000,  0.0000)
  21 O     -3.845824    1.742575   -0.967462    ( 0.0000,  0.0000,  0.0000)
  22 O      1.384100    1.742576   -1.064503    ( 0.0000,  0.0000,  0.0000)
  23 O      4.592967   -1.306861    1.306033    ( 0.0000,  0.0000,  0.0000)
  24 Li    -4.856429   -2.832143   -2.200714    ( 0.0000,  0.0000,  0.0000)
  25 Li     0.373571   -2.832143    0.169286    ( 0.0000,  0.0000,  0.0000)
  26 Li    -4.856429    0.217857   -2.190714    ( 0.0000,  0.0000,  0.0000)
  27 Li     0.373571    0.217857    0.169286    ( 0.0000,  0.0000,  0.0000)

Unit cell:
           periodic     x           y           z      points  spacing
  1. axis:    yes   10.460000    0.000000    0.000000    60     0.1743
  2. axis:    yes    0.000000    6.100000    0.000000    35     0.1743
  3. axis:    yes    0.000000    0.000000    4.740000    27     0.1756

  Lengths:  10.460000   6.100000   4.740000
  Angles:   90.000000  90.000000  90.000000

Effective grid spacing dv^(1/3) = 0.1747

                     log10-error:           total        iterations:
           time      wfs    density  force  energy       poisson  magmom
iter:   1  19:52:52                       -220.688509             +0.0000
iter:   2  19:53:13  -0.64  -0.92         -235.503985             +0.0000
iter:   3  19:53:34  -0.40  -0.96         -226.168988             -0.0000
iter:   4  19:53:56  -1.41  -1.29         -225.888397             +0.0000
iter:   5  19:54:17  -1.19  -1.38         -227.589310             +0.0000
iter:   6  19:54:38  -1.39  -1.51         -225.829254             +0.0000
iter:   7  19:54:59  -2.57  -2.06         -225.899288             +0.0000
iter:   8  19:55:20  -2.23  -2.01         -225.642031             -0.0000
iter:   9  19:55:42  -2.68  -2.09         -225.546883             +0.0000
iter:  10  19:56:03  -3.55  -2.95         -225.546115             +0.0000
iter:  11  19:56:24  -3.95  -3.00         -225.547670             +0.0000
iter:  12  19:56:45  -4.29  -3.22         -225.547847             +0.0000
iter:  13  19:57:06  -5.37  -3.36         -225.547738             -0.0000
iter:  14  19:57:27  -5.18  -3.44         -225.547590             -0.0000
iter:  15  19:57:49  -5.36  -3.60         -225.547504             -0.0000
iter:  16  19:58:10  -6.31  -3.68         -225.547489             +0.0000
iter:  17  19:58:31  -6.27  -3.75         -225.547508             -0.0000
iter:  18  19:58:52  -6.76  -3.81         -225.547509             -0.0000
iter:  19  19:59:13  -5.82  -3.83         -225.547474             -0.0000
iter:  20  19:59:35  -7.02  -4.42         -225.547470             -0.0000
iter:  21  20:00:01  -7.83  -4.69         -225.547468             -0.0000
iter:  22  20:00:22  -7.21  -4.79         -225.547466             +0.0000
iter:  23  20:00:49  -7.88  -4.77    -3.02-225.547465             +0.0000
iter:  24  20:01:16  -8.54  -4.93    -3.04-225.547466             +0.0000
iter:  25  20:01:43  -7.43  -4.95    -2.56-225.547466             +0.0000
iter:  26  20:02:09  -8.05  -4.94    -2.82-225.547465             +0.0000
iter:  27  20:02:36  -7.83  -5.06    -3.18-225.547466             +0.0000
iter:  28  20:03:03  -8.02  -5.03    -2.85-225.547466             +0.0000
iter:  29  20:03:29  -8.16  -5.23    -2.89-225.547466             +0.0000
iter:  30  20:03:56  -9.54  -5.57    -3.68-225.547466             +0.0000
iter:  31  20:04:23  -9.29  -5.65    -3.76-225.547465             +0.0000
iter:  32  20:04:49  -9.77  -5.76    -3.82-225.547465             +0.0000
iter:  33  20:05:16  -8.96  -5.83    -3.31-225.547465             +0.0000
iter:  34  20:05:43  -9.91  -5.80    -3.80-225.547465             +0.0000
iter:  35  20:06:09 -10.15  -6.02    -3.76-225.547465             +0.0000
iter:  36  20:06:36 -10.20  -6.13    -4.17-225.547465             +0.0000
iter:  37  20:07:03 -10.74  -6.30    -4.43-225.547465             +0.0000
iter:  38  20:07:30 -11.12  -6.39    -4.36-225.547465             +0.0000
iter:  39  20:07:56 -12.27  -6.56    -5.03-225.547465             +0.0000
iter:  40  20:08:23 -10.96  -6.53    -4.43-225.547465             +0.0000
iter:  41  20:08:50 -11.89  -6.65    -5.22-225.547465             +0.0000
iter:  42  20:09:16 -11.04  -6.70    -4.41-225.547465             +0.0000
iter:  43  20:09:43 -11.84  -6.85    -4.80-225.547465             +0.0000
iter:  44  20:10:10 -11.96  -7.22    -4.78-225.547465             +0.0000
iter:  45  20:10:36 -12.70  -7.18    -5.63-225.547465             +0.0000
iter:  46  20:11:03 -12.68  -7.39    -5.25-225.547465             +0.0000
iter:  47  20:11:30 -13.68  -7.74    -6.17-225.547465             +0.0000

Converged after 47 iterations.

Dipole moment: (13.159945, 1.715155, -5.506811) |e|*Ang

Total magnetic moment: (0.000000, 0.000000, 0.000000)
Local magnetic moments:
   0 O  ( 0.000000,  0.000000,  0.001067)
   1 O  ( 0.000000,  0.000000, -0.001051)
   2 O  ( 0.000000,  0.000000, -0.001056)
   3 O  ( 0.000000,  0.000000,  0.001038)
   4 O  ( 0.000000,  0.000000, -0.001065)
   5 O  ( 0.000000,  0.000000,  0.001054)
   6 O  ( 0.000000,  0.000000,  0.001060)
   7 O  ( 0.000000,  0.000000, -0.001051)
   8 O  ( 0.000000,  0.000000,  0.019755)
   9 O  ( 0.000000,  0.000000, -0.019778)
  10 O  ( 0.000000,  0.000000, -0.019802)
  11 O  ( 0.000000,  0.000000,  0.019775)
  12 Mn ( 0.000000,  0.000000,  4.601535)
  13 Mn ( 0.000000,  0.000000, -4.601579)
  14 Mn ( 0.000000,  0.000000, -4.601515)
  15 Mn ( 0.000000,  0.000000,  4.601605)
  16 P  ( 0.000000,  0.000000,  0.001300)
  17 P  ( 0.000000,  0.000000, -0.001293)
  18 P  ( 0.000000,  0.000000, -0.001300)
  19 P  ( 0.000000,  0.000000,  0.001294)
  20 O  ( 0.000000,  0.000000,  0.018077)
  21 O  ( 0.000000,  0.000000, -0.018058)
  22 O  ( 0.000000,  0.000000, -0.018067)
  23 O  ( 0.000000,  0.000000,  0.018078)
  24 Li ( 0.000000,  0.000000, -0.000001)
  25 Li ( 0.000000,  0.000000,  0.000000)
  26 Li ( 0.000000,  0.000000,  0.000008)
  27 Li ( 0.000000,  0.000000,  0.000000)

Energy contributions relative to reference atoms: (reference = -196157.275402)

Kinetic:       +242.943281
Potential:     -215.439474
External:        +0.000000
XC:            -254.966558
Entropy (-ST):   -0.000000
Local:           +1.915286
Free energy:   -225.547465
Extrapolated:  -225.547465

Spin contamination: 9.747498 electrons
Showing only first 2 kpts
                      Up                     Down
 Kpt  Band  Eigenvalues  Occupancy  Eigenvalues  Occupancy
  0    88      3.92279    1.00000      3.92299    1.00000
  0    89      3.97149    1.00000      3.97172    1.00000
  0    90      8.66721    0.00000      8.66754    0.00000
  0    91      8.68678    0.00000      8.68681    0.00000

  1    88      3.91932    1.00000      3.91941    1.00000
  1    89      3.97522    1.00000      3.97562    1.00000
  1    90      8.51297    0.00000      8.51321    0.00000
  1    91      8.52970    0.00000      8.52953    0.00000

Fermi level: 5.31835

Gap: 3.778 eV
Transition (v -> c):
  (s=1, k=49, n=89, [-0.08, -0.42, -0.12]) -> (s=0, k=82, n=90, [0.08, -0.08, 0.12])
Writing to born-0.01-26z+.gpw (mode='all')