User:   madkru@g031.nifl.fysik.dtu.dk
Date:   Sun Mar 21 04:50:11 2021
Arch:   x86_64
Pid:    47913
Python: 3.7.4
gpaw:   /home/niflheim/madkru/venv_folder/gpaw/gpaw (d0d1ca1c71)
_gpaw:  /home/niflheim/madkru/venv_folder/gpaw/build/lib.linux-x86_64-sandybridge-3.7/
        _gpaw.cpython-37m-x86_64-linux-gnu.so (4fd39e8b1e)
ase:    /home/niflheim/madkru/venv_folder/ase/ase (version 3.21.0b1-7e6c206a91)
numpy:  /home/niflheim/madkru/venv_folder/lib/python3.7/site-packages/numpy (version 1.19.4)
scipy:  /home/niflheim/madkru/venv_folder/lib/python3.7/site-packages/scipy (version 1.5.4)
units:  Angstrom and eV
cores: 32
OMP_NUM_THREADS: 1

Input parameters:
  convergence: {bands: occupied,
                density: 0.0001,
                eigenstates: 4e-08,
                energy: 0.0005,
                forces: 1e-06}
  kpts: [6 6 4]
  mode: {ecut: 600.0,
         gammacentered: False,
         name: pw}
  occupations: {fixmagmom: False,
                name: fermi-dirac,
                width: 0.001}
  setups: {Mn: :d,3.0}
  symmetry: {point_group: False,
             time_reversal: False}

System changes: positions, numbers, cell, pbc, initial_charges, initial_magmoms

Initialize ...

O-setup:
  name: Oxygen
  id: 9b9d51c344dea68c822856295a461509
  Z: 8.0
  valence: 6
  core: 2
  charge: 0.0
  file: /home/modules/software/GPAW-setups/0.9.20000/O.LDA.gz
  compensation charges: gauss, rc=0.21, lmax=2
  cutoffs: 1.17(filt), 0.83(core),
  valence states:
                energy  radius
    2s(2.00)   -23.752   0.688
    2p(4.00)    -9.195   0.598
    *s           3.459   0.688
    *p          18.016   0.598
    *d           0.000   0.619

  Using partial waves for O as LCAO basis

Mn-setup:
  name: Manganese
  id: 0d715a8018be061a6e9ea6f2d364ac92
  Z: 25.0
  valence: 15
  core: 10
  charge: 0.0
  Hubbard U: 3.000000 eV (l=2, scale=True)
  file: /home/modules/software/GPAW-setups/0.9.20000/Mn.LDA.gz
  compensation charges: gauss, rc=0.38, lmax=2
  cutoffs: 2.14(filt), 0.86(core),
  valence states:
                energy  radius
    3s(2.00)   -85.387   1.275
    4s(2.00)    -5.282   1.275
    3p(6.00)   -54.493   1.281
    4p(0.00)    -1.471   1.281
    3d(5.00)    -7.009   1.138
    *d          20.203   1.138

[...]

P-setup:
  name: Phosphorus
  id: a5561c299094968922a179ab894d2e2d
  Z: 15.0
  valence: 5
  core: 10
  charge: 0.0
  file: /home/modules/software/GPAW-setups/0.9.20000/P.LDA.gz
  compensation charges: gauss, rc=0.30, lmax=2
  cutoffs: 1.69(filt), 1.81(core),
  valence states:
                energy  radius
    3s(2.00)   -14.015   0.953
    3p(3.00)    -5.596   0.953
    *s          13.197   0.953
    *p          21.615   0.953
    *d           0.000   0.953

[...]

Li-setup:
  name: Lithium
  id: b73562207f97a71b6967473b66fe8b65
  Z: 3.0
  valence: 1
  core: 2
  charge: 0.0
  file: /home/modules/software/GPAW-setups/0.9.20000/Li.LDA.gz
  compensation charges: gauss, rc=0.33, lmax=2
  cutoffs: 1.91(filt), 2.55(core),
  valence states:
                energy  radius
    2s(1.00)    -2.874   1.058
    2p(0.00)    -1.126   1.058
    *s          24.338   1.058

  Using partial waves for Li as LCAO basis

Reference energy: -196157.275402

Spin-polarized calculation.
Magnetic moment: 0.000000

Convergence criteria:
  Maximum total energy change: 0.0005 eV / electron
  Maximum integral of absolute density change: 0.0001 electrons
  Maximum integral of absolute eigenstate change: 4e-08 eV^2
  Maximum change in atomic force: 1e-06 eV / Ang
  Maximum number of iterations: 333

Symmetries present (total): 1

  ( 1  0  0)
  ( 0  1  0)
  ( 0  0  1)

144 k-points: 6 x 6 x 4 Monkhorst-Pack grid
144 k-points in the irreducible part of the Brillouin zone
       k-points in crystal coordinates                weights
   0:    -0.41666667   -0.41666667   -0.37500000          1/144
   1:    -0.41666667   -0.41666667   -0.12500000          1/144
   2:    -0.41666667   -0.41666667    0.12500000          1/144
   3:    -0.41666667   -0.41666667    0.37500000          1/144
   4:    -0.41666667   -0.25000000   -0.37500000          1/144
   5:    -0.41666667   -0.25000000   -0.12500000          1/144
   6:    -0.41666667   -0.25000000    0.12500000          1/144
   7:    -0.41666667   -0.25000000    0.37500000          1/144
   8:    -0.41666667   -0.08333333   -0.37500000          1/144
   9:    -0.41666667   -0.08333333   -0.12500000          1/144
          ...
 143:     0.41666667    0.41666667    0.37500000          1/144

Wave functions: Plane wave expansion
  Cutoff energy: 600.000 eV
  Number of coefficients (min, max): 10068, 10125
  Pulay-stress correction: 0.000000 eV/Ang^3 (de/decut=0.000000)
  Using FFTW library
  ScaLapack parameters: grid=1x1, blocksize=None
  Wavefunction extrapolation:
    Improved wavefunction reuse through dual PAW basis

  Fermi-Dirac: width=0.0010 eV

Eigensolver
   Davidson(niter=2, smin=None, normalize=True)

Densities:
  Coarse grid: 60*35*27 grid
  Fine grid: 120*70*54 grid
  Total Charge: 0.000000

Density mixing:
  Method: difference
  Backend: pulay
  Linear mixing parameter: 0.05
  Mixing with 5 old densities
  Damping of long wave oscillations: 50

Hamiltonian:
  XC and Coulomb potentials evaluated on a 120*70*54 grid
  Using the LDA Exchange-Correlation functional

Total number of cores used: 32
Parallelization over k-points: 16
Domain decomposition: 2 x 1 x 1

Number of atoms: 28
Number of atomic orbitals: 148
Number of bands in calculation: 112
Number of valence electrons: 180
Bands to converge: occupied

... initialized

Initializing position-dependent things.

Density initialized from atomic densities
Creating initial wave functions:
  112 bands from LCAO basis set

    /|         OP              |
   / |O            O        O  |
  /  |       O            O  P |
 *   |O    Mn      O           |
 |   |          OLi          O |
 |   P--O--------------Mn------.
 |  /          Li    O  Mn  O /
 | /LiO           PO         /
 |/       Mn                /
 *Li-----------------------*

Positions:
   0 O     -1.320281   -2.539252   -1.168500    ( 0.0000,  0.0000,  0.0000)
   1 O     -3.152392    2.974909    1.200956    ( 0.0000,  0.0000,  0.0000)
   2 O      2.077234    0.510133    1.506966    ( 0.0000,  0.0000,  0.0000)
   3 O      3.899724   -0.074476   -0.862491    ( 0.0000,  0.0000,  0.0000)
   4 O      2.077424    2.974966    1.507072    ( 0.0000,  0.0000,  0.0000)
   5 O      3.899535   -2.539195   -0.862384    ( 0.0000,  0.0000,  0.0000)
   6 O     -1.330092   -0.074418   -1.168395    ( 0.0000,  0.0000,  0.0000)
   7 O     -3.152581    0.510191    1.201063    ( 0.0000,  0.0000,  0.0000)
   8 O     -4.389675   -1.306969   -0.813152    ( 0.0000,  0.0000,  0.0000)
   9 O     -0.093301    1.742683    1.556268    ( 0.0000,  0.0000,  0.0000)
  10 O      5.136817    1.742683    1.151723    ( 0.0000,  0.0000,  0.0000)
  11 O      0.840444   -1.306969   -1.217697    ( 0.0000,  0.0000,  0.0000)
  12 Mn    -2.557192   -1.307258    0.273595    ( 0.0000,  0.0000,  1.0000)
  13 Mn    -1.925535    1.742972   -2.096623    ( 0.0000,  0.0000, -1.0000)
  14 Mn     3.304335    1.742972    0.064976    ( 0.0000,  0.0000, -1.0000)
  15 Mn     2.672678   -1.307258    2.435195    ( 0.0000,  0.0000,  1.0000)
  16 P     -0.597175   -1.306854   -1.801474    ( 0.0000,  0.0000,  0.0000)
  17 P     -3.885565    1.742568    0.568028    ( 0.0000,  0.0000,  0.0000)
  18 P      1.344318    1.742568    2.140045    ( 0.0000,  0.0000,  0.0000)
  19 P      4.632708   -1.306854   -0.229456    ( 0.0000,  0.0000,  0.0000)
  20 O     -0.636957   -1.306861    1.403074    ( 0.0000,  0.0000,  0.0000)
  21 O     -3.845824    1.742575   -0.967462    ( 0.0000,  0.0000,  0.0000)
  22 O      1.384100    1.742576   -1.064503    ( 0.0000,  0.0000,  0.0000)
  23 O      4.592967   -1.306861    1.306033    ( 0.0000,  0.0000,  0.0000)
  24 Li    -4.856429   -2.832143   -2.200714    ( 0.0000,  0.0000,  0.0000)
  25 Li     0.373571   -2.832143    0.169286    ( 0.0000,  0.0000,  0.0000)
  26 Li    -4.856429    0.217857   -2.200714    ( 0.0000,  0.0000,  0.0000)
  27 Li     0.373571    0.217857    0.169286    ( 0.0000,  0.0000,  0.0000)

Unit cell:
           periodic     x           y           z      points  spacing
  1. axis:    yes   10.460000    0.000000    0.000000    60     0.1743
  2. axis:    yes    0.000000    6.100000    0.000000    35     0.1743
  3. axis:    yes    0.000000    0.000000    4.740000    27     0.1756

  Lengths:  10.460000   6.100000   4.740000
  Angles:   90.000000  90.000000  90.000000

Effective grid spacing dv^(1/3) = 0.1747

                     log10-error:           total        iterations:
           time      wfs    density  force  energy       poisson  magmom
iter:   1  04:52:59                       -220.694206             +0.0000
iter:   2  04:53:39  -0.64  -0.92         -235.516947             +0.0000
iter:   3  04:54:19  -0.40  -0.96         -226.169659             -0.0000
iter:   4  04:54:58  -1.41  -1.29         -225.887838             +0.0000
iter:   5  04:55:38  -1.19  -1.38         -227.589633             +0.0000
iter:   6  04:56:18  -1.39  -1.51         -225.829118             +0.0000
iter:   7  04:56:57  -2.56  -2.06         -225.898625             +0.0000
iter:   8  04:57:37  -2.24  -2.01         -225.643465             -0.0000
iter:   9  04:58:17  -2.67  -2.08         -225.546189             +0.0000
iter:  10  04:58:56  -3.54  -2.94         -225.545195             +0.0000
iter:  11  04:59:36  -3.95  -3.00         -225.547110             +0.0000
iter:  12  05:00:15  -4.30  -3.22         -225.547266             +0.0000
iter:  13  05:00:55  -5.36  -3.36         -225.547162             -0.0000
iter:  14  05:01:35  -5.17  -3.44         -225.547033             -0.0000
iter:  15  05:02:14  -5.33  -3.59         -225.546936             -0.0000
iter:  16  05:02:54  -6.32  -3.70         -225.546919             +0.0000
iter:  17  05:03:33  -6.34  -3.77         -225.546937             -0.0000
iter:  18  05:04:13  -6.72  -3.83         -225.546938             -0.0000
iter:  19  05:04:53  -5.90  -3.84         -225.546902             -0.0000
iter:  20  05:05:32  -7.12  -4.37         -225.546898             -0.0000
iter:  21  05:06:23  -7.72  -4.46         -225.546897             +0.0000
iter:  22  05:07:03  -7.35  -4.50         -225.546899             +0.0000
iter:  23  05:07:53  -7.68  -4.52    -2.74-225.546897             +0.0000
iter:  24  05:08:43  -7.57  -4.59    -2.51-225.546898             -0.0000
iter:  25  05:09:22  -7.26  -4.64         -225.546898             -0.0000
iter:  26  05:10:13  -7.55  -4.68    -2.60-225.546898             -0.0000
iter:  27  05:11:03  -8.54  -4.76    -3.23-225.546898             -0.0000
iter:  28  05:11:53  -7.63  -4.78    -2.97-225.546898             -0.0000
iter:  29  05:12:43  -8.53  -4.99    -3.20-225.546898             -0.0000
iter:  30  05:13:33  -8.22  -5.03    -3.09-225.546897             -0.0000
iter:  31  05:14:24  -9.51  -5.28    -3.49-225.546897             -0.0000
iter:  32  05:15:14  -9.55  -5.34    -3.43-225.546897             -0.0000
iter:  33  05:16:04  -8.84  -5.39    -3.32-225.546897             +0.0000
iter:  34  05:16:54  -9.04  -5.39    -3.56-225.546897             +0.0000
iter:  35  05:17:44  -8.91  -5.44    -3.42-225.546897             +0.0000
iter:  36  05:18:35  -9.36  -5.44    -3.74-225.546897             +0.0000
iter:  37  05:19:25 -10.11  -5.68    -4.02-225.546897             -0.0000
iter:  38  05:20:15 -10.02  -5.78    -3.69-225.546897             +0.0000
iter:  39  05:21:05 -10.39  -5.84    -3.82-225.546897             +0.0000
iter:  40  05:21:55 -11.44  -5.95    -4.56-225.546897             +0.0000
iter:  41  05:22:45 -10.68  -5.97    -3.97-225.546897             +0.0000
iter:  42  05:23:35 -10.84  -6.15    -4.58-225.546897             +0.0000
iter:  43  05:24:25 -10.20  -6.26    -3.95-225.546897             -0.0000
iter:  44  05:25:16 -10.73  -6.31    -4.47-225.546897             -0.0000
iter:  45  05:26:06 -11.32  -6.77    -5.14-225.546897             -0.0000
iter:  46  05:26:56 -12.10  -6.85    -4.65-225.546897             +0.0000
iter:  47  05:27:46 -12.14  -6.99    -4.60-225.546897             -0.0000
iter:  48  05:28:36 -13.34  -7.15    -5.36-225.546897             +0.0000
iter:  49  05:29:26 -12.96  -7.24    -5.12-225.546897             -0.0000
iter:  50  05:30:16 -13.09  -7.35    -5.50-225.546897             -0.0000
iter:  51  05:31:06 -13.49  -7.44    -5.55-225.546897             -0.0000
iter:  52  05:31:56 -13.54  -7.60    -5.66-225.546897             -0.0000
iter:  53  05:32:46 -13.41  -7.71    -5.45-225.546897             -0.0000
iter:  54  05:33:36 -13.97  -7.89    -5.78-225.546897             -0.0000
iter:  55  05:34:26 -14.40  -7.99    -6.46-225.546897             -0.0000

Converged after 55 iterations.

Dipole moment: (13.165132, 1.713210, -5.513123) |e|*Ang

Total magnetic moment: (0.000000, 0.000000, -0.000000)
Local magnetic moments:
   0 O  ( 0.000000,  0.000000,  0.001029)
   1 O  ( 0.000000,  0.000000, -0.001040)
   2 O  ( 0.000000,  0.000000, -0.001066)
   3 O  ( 0.000000,  0.000000,  0.001032)
   4 O  ( 0.000000,  0.000000, -0.001077)
   5 O  ( 0.000000,  0.000000,  0.001039)
   6 O  ( 0.000000,  0.000000,  0.001035)
   7 O  ( 0.000000,  0.000000, -0.001006)
   8 O  ( 0.000000,  0.000000,  0.019765)
   9 O  ( 0.000000,  0.000000, -0.019792)
  10 O  ( 0.000000,  0.000000, -0.019746)
  11 O  ( 0.000000,  0.000000,  0.019853)
  12 Mn ( 0.000000,  0.000000,  4.601825)
  13 Mn ( 0.000000,  0.000000, -4.601983)
  14 Mn ( 0.000000,  0.000000, -4.601526)
  15 Mn ( 0.000000,  0.000000,  4.601595)
  16 P  ( 0.000000,  0.000000,  0.001276)
  17 P  ( 0.000000,  0.000000, -0.001300)
  18 P  ( 0.000000,  0.000000, -0.001292)
  19 P  ( 0.000000,  0.000000,  0.001287)
  20 O  ( 0.000000,  0.000000,  0.018084)
  21 O  ( 0.000000,  0.000000, -0.018030)
  22 O  ( 0.000000,  0.000000, -0.018087)
  23 O  ( 0.000000,  0.000000,  0.018041)
  24 Li ( 0.000000,  0.000000, -0.000000)
  25 Li ( 0.000000,  0.000000, -0.000003)
  26 Li ( 0.000000,  0.000000, -0.000000)
  27 Li ( 0.000000,  0.000000,  0.000002)

Energy contributions relative to reference atoms: (reference = -196157.275402)

Kinetic:       +243.205744
Potential:     -215.638816
External:        +0.000000
XC:            -255.028789
Entropy (-ST):   -0.000000
Local:           +1.914964
Free energy:   -225.546897
Extrapolated:  -225.546897

Spin contamination: 9.747905 electrons
Showing only first 2 kpts
                      Up                     Down
 Kpt  Band  Eigenvalues  Occupancy  Eigenvalues  Occupancy
  0    88      3.92137    0.00694      3.91892    0.00694
  0    89      3.97180    0.00694      3.96873    0.00694
  0    90      8.66599    0.00000      8.66094    0.00000
  0    91      8.68196    0.00000      8.68920    0.00000

  1    88      3.91802    0.00694      3.91537    0.00694
  1    89      3.97536    0.00694      3.97250    0.00694
  1    90      8.51096    0.00000      8.50343    0.00000
  1    91      8.52610    0.00000      8.53167    0.00000

Fermi level: 5.31823

Gap: 3.777 eV
Transition (v -> c):
  (s=0, k=73, n=89, [0.08, -0.42, -0.12]) -> (s=1, k=82, n=90, [0.08, -0.08, 0.12])
Writing to born-0.01-0x+.gpw (mode='all')