User:   madkru@g006.nifl.fysik.dtu.dk
Date:   Wed Mar 24 15:43:52 2021
Arch:   x86_64
Pid:    12017
Python: 3.7.4
gpaw:   /home/niflheim/madkru/venv_folder/gpaw/gpaw (d224efde0f)
_gpaw:  /home/niflheim/madkru/venv_folder/gpaw/build/lib.linux-x86_64-sandybridge-3.7/
        _gpaw.cpython-37m-x86_64-linux-gnu.so (4fd39e8b1e)
ase:    /home/niflheim/madkru/venv_folder/ase/ase (version 3.21.0b1-4d5a73cb29)
numpy:  /home/niflheim/madkru/venv_folder/lib/python3.7/site-packages/numpy (version 1.19.4)
scipy:  /home/niflheim/madkru/venv_folder/lib/python3.7/site-packages/scipy (version 1.5.4)
units:  Angstrom and eV
cores: 64
OMP_NUM_THREADS: 1

Input parameters:
  convergence: {bands: occupied,
                density: 0.0001,
                eigenstates: 4e-08,
                energy: 0.0005,
                forces: 1e-06}
  kpts: [6 6 4]
  mode: {ecut: 600.0,
         gammacentered: False,
         name: pw}
  occupations: {fixmagmom: False,
                name: fermi-dirac,
                width: 0.001}
  setups: {Mn: :d,3.0}
  symmetry: {point_group: False,
             time_reversal: False}

System changes: positions, numbers, cell, pbc, initial_charges, initial_magmoms

Initialize ...

O-setup:
  name: Oxygen
  id: 9b9d51c344dea68c822856295a461509
  Z: 8.0
  valence: 6
  core: 2
  charge: 0.0
  file: /home/modules/software/GPAW-setups/0.9.20000/O.LDA.gz
  compensation charges: gauss, rc=0.21, lmax=2
  cutoffs: 1.17(filt), 0.83(core),
  valence states:
                energy  radius
    2s(2.00)   -23.752   0.688
    2p(4.00)    -9.195   0.598
    *s           3.459   0.688
    *p          18.016   0.598
    *d           0.000   0.619

  Using partial waves for O as LCAO basis

Mn-setup:
  name: Manganese
  id: 0d715a8018be061a6e9ea6f2d364ac92
  Z: 25.0
  valence: 15
  core: 10
  charge: 0.0
  Hubbard U: 3.000000 eV (l=2, scale=True)
  file: /home/modules/software/GPAW-setups/0.9.20000/Mn.LDA.gz
  compensation charges: gauss, rc=0.38, lmax=2
  cutoffs: 2.14(filt), 0.86(core),
  valence states:
                energy  radius
    3s(2.00)   -85.387   1.275
    4s(2.00)    -5.282   1.275
    3p(6.00)   -54.493   1.281
    4p(0.00)    -1.471   1.281
    3d(5.00)    -7.009   1.138
    *d          20.203   1.138

[...]

P-setup:
  name: Phosphorus
  id: a5561c299094968922a179ab894d2e2d
  Z: 15.0
  valence: 5
  core: 10
  charge: 0.0
  file: /home/modules/software/GPAW-setups/0.9.20000/P.LDA.gz
  compensation charges: gauss, rc=0.30, lmax=2
  cutoffs: 1.69(filt), 1.81(core),
  valence states:
                energy  radius
    3s(2.00)   -14.015   0.953
    3p(3.00)    -5.596   0.953
    *s          13.197   0.953
    *p          21.615   0.953
    *d           0.000   0.953

[...]

Li-setup:
  name: Lithium
  id: b73562207f97a71b6967473b66fe8b65
  Z: 3.0
  valence: 1
  core: 2
  charge: 0.0
  file: /home/modules/software/GPAW-setups/0.9.20000/Li.LDA.gz
  compensation charges: gauss, rc=0.33, lmax=2
  cutoffs: 1.91(filt), 2.55(core),
  valence states:
                energy  radius
    2s(1.00)    -2.874   1.058
    2p(0.00)    -1.126   1.058
    *s          24.338   1.058

  Using partial waves for Li as LCAO basis

Reference energy: -196157.275402

Spin-polarized calculation.
Magnetic moment: 0.000000

Convergence criteria:
  Maximum total energy change: 0.0005 eV / electron
  Maximum integral of absolute density change: 0.0001 electrons
  Maximum integral of absolute eigenstate change: 4e-08 eV^2
  Maximum change in atomic force: 1e-06 eV / Ang
  Maximum number of iterations: 333

Symmetries present (total): 1

  ( 1  0  0)
  ( 0  1  0)
  ( 0  0  1)

144 k-points: 6 x 6 x 4 Monkhorst-Pack grid
144 k-points in the irreducible part of the Brillouin zone
       k-points in crystal coordinates                weights
   0:    -0.41666667   -0.41666667   -0.37500000          1/144
   1:    -0.41666667   -0.41666667   -0.12500000          1/144
   2:    -0.41666667   -0.41666667    0.12500000          1/144
   3:    -0.41666667   -0.41666667    0.37500000          1/144
   4:    -0.41666667   -0.25000000   -0.37500000          1/144
   5:    -0.41666667   -0.25000000   -0.12500000          1/144
   6:    -0.41666667   -0.25000000    0.12500000          1/144
   7:    -0.41666667   -0.25000000    0.37500000          1/144
   8:    -0.41666667   -0.08333333   -0.37500000          1/144
   9:    -0.41666667   -0.08333333   -0.12500000          1/144
          ...
 143:     0.41666667    0.41666667    0.37500000          1/144

Wave functions: Plane wave expansion
  Cutoff energy: 600.000 eV
  Number of coefficients (min, max): 10068, 10125
  Pulay-stress correction: 0.000000 eV/Ang^3 (de/decut=0.000000)
  Using FFTW library
  ScaLapack parameters: grid=1x1, blocksize=None
  Wavefunction extrapolation:
    Improved wavefunction reuse through dual PAW basis

  Fermi-Dirac: width=0.0010 eV

Eigensolver
   Davidson(niter=2, smin=None, normalize=True)

Densities:
  Coarse grid: 60*35*27 grid
  Fine grid: 120*70*54 grid
  Total Charge: 0.000000

Density mixing:
  Method: difference
  Backend: pulay
  Linear mixing parameter: 0.05
  Mixing with 5 old densities
  Damping of long wave oscillations: 50

Hamiltonian:
  XC and Coulomb potentials evaluated on a 120*70*54 grid
  Using the LDA Exchange-Correlation functional

Total number of cores used: 64
Parallelization over k-points: 16
Domain decomposition: 2 x 2 x 1

Number of atoms: 28
Number of atomic orbitals: 148
Number of bands in calculation: 112
Number of valence electrons: 180
Bands to converge: occupied

... initialized

Initializing position-dependent things.

Density initialized from atomic densities
Creating initial wave functions:
  112 bands from LCAO basis set

    /|         OP              |
   / |O            O        O  |
  /  |       O            O  P |
 *   |O    Mn      O           |
 |   |          OLi          O |
 |   P--O--------------Mn------.
 |  /          Li    O  Mn  O /
 | /LiO           PO         /
 |/       Mn                /
 *Li-----------------------*

Positions:
   0 O     -1.330281   -2.539252   -1.168500    ( 0.0000,  0.0000,  0.0000)
   1 O     -3.152392    2.974909    1.200956    ( 0.0000,  0.0000,  0.0000)
   2 O      2.077234    0.510133    1.506966    ( 0.0000,  0.0000,  0.0000)
   3 O      3.899724   -0.074476   -0.862491    ( 0.0000,  0.0000,  0.0000)
   4 O      2.077424    2.974966    1.507072    ( 0.0000,  0.0000,  0.0000)
   5 O      3.899535   -2.539195   -0.862384    ( 0.0000,  0.0000,  0.0000)
   6 O     -1.330092   -0.074418   -1.168395    ( 0.0000,  0.0000,  0.0000)
   7 O     -3.152581    0.510191    1.201063    ( 0.0000,  0.0000,  0.0000)
   8 O     -4.389675   -1.306969   -0.813152    ( 0.0000,  0.0000,  0.0000)
   9 O     -0.093301    1.742683    1.556268    ( 0.0000,  0.0000,  0.0000)
  10 O      5.136817    1.742683    1.151723    ( 0.0000,  0.0000,  0.0000)
  11 O      0.840444   -1.306969   -1.217697    ( 0.0000,  0.0000,  0.0000)
  12 Mn    -2.557192   -1.307258    0.273595    ( 0.0000,  0.0000,  1.0000)
  13 Mn    -1.925535    1.742972   -2.096623    ( 0.0000,  0.0000, -1.0000)
  14 Mn     3.304335    1.742972    0.064976    ( 0.0000,  0.0000, -1.0000)
  15 Mn     2.672678   -1.307258    2.435195    ( 0.0000,  0.0000,  1.0000)
  16 P     -0.597175   -1.306854   -1.801474    ( 0.0000,  0.0000,  0.0000)
  17 P     -3.885565    1.742568    0.568028    ( 0.0000,  0.0000,  0.0000)
  18 P      1.344318    1.742568    2.130045    ( 0.0000,  0.0000,  0.0000)
  19 P      4.632708   -1.306854   -0.229456    ( 0.0000,  0.0000,  0.0000)
  20 O     -0.636957   -1.306861    1.403074    ( 0.0000,  0.0000,  0.0000)
  21 O     -3.845824    1.742575   -0.967462    ( 0.0000,  0.0000,  0.0000)
  22 O      1.384100    1.742576   -1.064503    ( 0.0000,  0.0000,  0.0000)
  23 O      4.592967   -1.306861    1.306033    ( 0.0000,  0.0000,  0.0000)
  24 Li    -4.856429   -2.832143   -2.200714    ( 0.0000,  0.0000,  0.0000)
  25 Li     0.373571   -2.832143    0.169286    ( 0.0000,  0.0000,  0.0000)
  26 Li    -4.856429    0.217857   -2.200714    ( 0.0000,  0.0000,  0.0000)
  27 Li     0.373571    0.217857    0.169286    ( 0.0000,  0.0000,  0.0000)

Unit cell:
           periodic     x           y           z      points  spacing
  1. axis:    yes   10.460000    0.000000    0.000000    60     0.1743
  2. axis:    yes    0.000000    6.100000    0.000000    35     0.1743
  3. axis:    yes    0.000000    0.000000    4.740000    27     0.1756

  Lengths:  10.460000   6.100000   4.740000
  Angles:   90.000000  90.000000  90.000000

Effective grid spacing dv^(1/3) = 0.1747

                     log10-error:           total        iterations:
           time      wfs    density  force  energy       poisson  magmom
iter:   1  15:45:24                       -220.678364             +0.0000
iter:   2  15:45:45  -0.64  -0.92         -235.497509             +0.0000
iter:   3  15:46:07  -0.40  -0.96         -226.167221             -0.0000
iter:   4  15:46:28  -1.41  -1.29         -225.885103             +0.0000
iter:   5  15:46:49  -1.19  -1.38         -227.581336             +0.0000
iter:   6  15:47:11  -1.39  -1.51         -225.826871             +0.0000
iter:   7  15:47:32  -2.55  -2.06         -225.893377             +0.0000
iter:   8  15:47:54  -2.24  -2.01         -225.652118             -0.0000
iter:   9  15:48:15  -2.65  -2.06         -225.543272             +0.0000
iter:  10  15:48:36  -3.50  -2.93         -225.542006             +0.0000
iter:  11  15:48:58  -3.94  -2.99         -225.544532             +0.0000
iter:  12  15:49:19  -4.30  -3.22         -225.544631             +0.0000
iter:  13  15:49:41  -5.45  -3.36         -225.544563             -0.0000
iter:  14  15:50:02  -5.26  -3.43         -225.544457             +0.0000
iter:  15  15:50:23  -5.46  -3.59         -225.544376             -0.0000
iter:  16  15:50:45  -6.43  -3.68         -225.544350             +0.0000
iter:  17  15:51:06  -6.08  -3.73         -225.544377             -0.0000
iter:  18  15:51:28  -6.57  -3.80         -225.544377             -0.0000
iter:  19  15:51:49  -5.88  -3.83         -225.544335             -0.0000
iter:  20  15:52:10  -6.80  -4.33         -225.544334             -0.0000
iter:  21  15:52:37  -7.64  -4.70         -225.544332             -0.0000
iter:  22  15:53:04  -7.81  -4.93    -2.72-225.544332             +0.0000
iter:  23  15:53:31  -7.86  -4.88    -2.79-225.544331             +0.0000
iter:  24  15:53:57  -8.65  -5.15    -3.32-225.544331             +0.0000
iter:  25  15:54:24  -8.08  -5.21    -2.96-225.544331             +0.0000
iter:  26  15:54:51  -8.96  -5.41    -3.60-225.544331             +0.0000
iter:  27  15:55:18  -9.26  -5.44    -3.15-225.544331             +0.0000
iter:  28  15:55:45  -9.65  -5.52    -3.30-225.544331             +0.0000
iter:  29  15:56:11 -10.14  -5.75    -3.80-225.544331             +0.0000
iter:  30  15:56:38  -9.99  -5.83    -3.68-225.544331             +0.0000
iter:  31  15:57:05  -9.86  -5.97    -3.93-225.544331             +0.0000
iter:  32  15:57:32 -10.45  -6.03    -4.71-225.544331             +0.0000
iter:  33  15:57:58 -10.36  -6.07    -3.95-225.544331             +0.0000
iter:  34  15:58:25 -10.60  -6.34    -4.12-225.544331             +0.0000
iter:  35  15:58:52 -11.68  -6.41    -5.08-225.544331             +0.0000
iter:  36  15:59:19 -10.53  -6.44    -4.29-225.544331             +0.0000
iter:  37  15:59:45 -11.66  -6.70    -4.61-225.544331             +0.0000
iter:  38  16:00:12 -10.92  -6.80    -4.58-225.544331             +0.0000
iter:  39  16:00:39 -11.64  -6.91    -4.85-225.544331             +0.0000
iter:  40  16:01:06 -11.55  -6.97    -4.93-225.544331             +0.0000
iter:  41  16:01:32 -11.56  -7.03    -4.75-225.544331             +0.0000
iter:  42  16:01:59 -12.59  -7.51    -5.35-225.544331             +0.0000
iter:  43  16:02:26 -13.33  -7.70    -5.23-225.544331             +0.0000
iter:  44  16:02:53 -13.20  -7.76    -5.63-225.544331             +0.0000
iter:  45  16:03:20 -14.54  -8.31    -6.48-225.544331             +0.0000

Converged after 45 iterations.

Dipole moment: (13.175921, 1.721555, -5.533132) |e|*Ang

Total magnetic moment: (0.000000, 0.000000, 0.000000)
Local magnetic moments:
   0 O  ( 0.000000,  0.000000,  0.001088)
   1 O  ( 0.000000,  0.000000, -0.001052)
   2 O  ( 0.000000,  0.000000, -0.001176)
   3 O  ( 0.000000,  0.000000,  0.001036)
   4 O  ( 0.000000,  0.000000, -0.001184)
   5 O  ( 0.000000,  0.000000,  0.001044)
   6 O  ( 0.000000,  0.000000,  0.001080)
   7 O  ( 0.000000,  0.000000, -0.001044)
   8 O  ( 0.000000,  0.000000,  0.019779)
   9 O  ( 0.000000,  0.000000, -0.019627)
  10 O  ( 0.000000,  0.000000, -0.019716)
  11 O  ( 0.000000,  0.000000,  0.019768)
  12 Mn ( 0.000000,  0.000000,  4.601523)
  13 Mn ( 0.000000,  0.000000, -4.601758)
  14 Mn ( 0.000000,  0.000000, -4.601440)
  15 Mn ( 0.000000,  0.000000,  4.601877)
  16 P  ( 0.000000,  0.000000,  0.001298)
  17 P  ( 0.000000,  0.000000, -0.001292)
  18 P  ( 0.000000,  0.000000, -0.001204)
  19 P  ( 0.000000,  0.000000,  0.001282)
  20 O  ( 0.000000,  0.000000,  0.018070)
  21 O  ( 0.000000,  0.000000, -0.018096)
  22 O  ( 0.000000,  0.000000, -0.018280)
  23 O  ( 0.000000,  0.000000,  0.018045)
  24 Li ( 0.000000,  0.000000,  0.000000)
  25 Li ( 0.000000,  0.000000, -0.000002)
  26 Li ( 0.000000,  0.000000,  0.000000)
  27 Li ( 0.000000,  0.000000, -0.000002)

Energy contributions relative to reference atoms: (reference = -196157.275402)

Kinetic:       +242.979023
Potential:     -215.453105
External:        +0.000000
XC:            -254.985341
Entropy (-ST):   -0.000000
Local:           +1.915093
Free energy:   -225.544331
Extrapolated:  -225.544331

Spin contamination: 9.747625 electrons
Showing only first 2 kpts
                      Up                     Down
 Kpt  Band  Eigenvalues  Occupancy  Eigenvalues  Occupancy
  0    88      3.91645    0.00694      3.92230    0.00694
  0    89      3.96620    0.00694      3.97534    0.00694
  0    90      8.66895    0.00000      8.66400    0.00000
  0    91      8.68576    0.00000      8.68104    0.00000

  1    88      3.91292    0.00694      3.91861    0.00694
  1    89      3.96983    0.00694      3.97842    0.00694
  1    90      8.51435    0.00000      8.50994    0.00000
  1    91      8.52970    0.00000      8.52486    0.00000

Fermi level: 5.31813

Gap: 3.779 eV
Transition (v -> c):
  (s=1, k=70, n=89, [-0.08, 0.42, 0.12]) -> (s=0, k=86, n=90, [0.08, 0.08, 0.12])
Writing to born-0.01-18z-.gpw (mode='all')