User:   madkru@g006.nifl.fysik.dtu.dk
Date:   Thu Mar 25 00:35:33 2021
Arch:   x86_64
Pid:    12017
Python: 3.7.4
gpaw:   /home/niflheim/madkru/venv_folder/gpaw/gpaw (d224efde0f)
_gpaw:  /home/niflheim/madkru/venv_folder/gpaw/build/lib.linux-x86_64-sandybridge-3.7/
        _gpaw.cpython-37m-x86_64-linux-gnu.so (4fd39e8b1e)
ase:    /home/niflheim/madkru/venv_folder/ase/ase (version 3.21.0b1-4d5a73cb29)
numpy:  /home/niflheim/madkru/venv_folder/lib/python3.7/site-packages/numpy (version 1.19.4)
scipy:  /home/niflheim/madkru/venv_folder/lib/python3.7/site-packages/scipy (version 1.5.4)
units:  Angstrom and eV
cores: 64
OMP_NUM_THREADS: 1

Input parameters:
  convergence: {bands: occupied,
                density: 0.0001,
                eigenstates: 4e-08,
                energy: 0.0005,
                forces: 1e-06}
  kpts: [6 6 4]
  mode: {ecut: 600.0,
         gammacentered: False,
         name: pw}
  occupations: {fixmagmom: False,
                name: fermi-dirac,
                width: 0.001}
  setups: {Mn: :d,3.0}
  symmetry: {point_group: False,
             time_reversal: False}

System changes: positions, numbers, cell, pbc, initial_charges, initial_magmoms

Initialize ...

O-setup:
  name: Oxygen
  id: 9b9d51c344dea68c822856295a461509
  Z: 8.0
  valence: 6
  core: 2
  charge: 0.0
  file: /home/modules/software/GPAW-setups/0.9.20000/O.LDA.gz
  compensation charges: gauss, rc=0.21, lmax=2
  cutoffs: 1.17(filt), 0.83(core),
  valence states:
                energy  radius
    2s(2.00)   -23.752   0.688
    2p(4.00)    -9.195   0.598
    *s           3.459   0.688
    *p          18.016   0.598
    *d           0.000   0.619

  Using partial waves for O as LCAO basis

Mn-setup:
  name: Manganese
  id: 0d715a8018be061a6e9ea6f2d364ac92
  Z: 25.0
  valence: 15
  core: 10
  charge: 0.0
  Hubbard U: 3.000000 eV (l=2, scale=True)
  file: /home/modules/software/GPAW-setups/0.9.20000/Mn.LDA.gz
  compensation charges: gauss, rc=0.38, lmax=2
  cutoffs: 2.14(filt), 0.86(core),
  valence states:
                energy  radius
    3s(2.00)   -85.387   1.275
    4s(2.00)    -5.282   1.275
    3p(6.00)   -54.493   1.281
    4p(0.00)    -1.471   1.281
    3d(5.00)    -7.009   1.138
    *d          20.203   1.138

[...]

P-setup:
  name: Phosphorus
  id: a5561c299094968922a179ab894d2e2d
  Z: 15.0
  valence: 5
  core: 10
  charge: 0.0
  file: /home/modules/software/GPAW-setups/0.9.20000/P.LDA.gz
  compensation charges: gauss, rc=0.30, lmax=2
  cutoffs: 1.69(filt), 1.81(core),
  valence states:
                energy  radius
    3s(2.00)   -14.015   0.953
    3p(3.00)    -5.596   0.953
    *s          13.197   0.953
    *p          21.615   0.953
    *d           0.000   0.953

[...]

Li-setup:
  name: Lithium
  id: b73562207f97a71b6967473b66fe8b65
  Z: 3.0
  valence: 1
  core: 2
  charge: 0.0
  file: /home/modules/software/GPAW-setups/0.9.20000/Li.LDA.gz
  compensation charges: gauss, rc=0.33, lmax=2
  cutoffs: 1.91(filt), 2.55(core),
  valence states:
                energy  radius
    2s(1.00)    -2.874   1.058
    2p(0.00)    -1.126   1.058
    *s          24.338   1.058

  Using partial waves for Li as LCAO basis

Reference energy: -196157.275402

Spin-polarized calculation.
Magnetic moment: 0.000000

Convergence criteria:
  Maximum total energy change: 0.0005 eV / electron
  Maximum integral of absolute density change: 0.0001 electrons
  Maximum integral of absolute eigenstate change: 4e-08 eV^2
  Maximum change in atomic force: 1e-06 eV / Ang
  Maximum number of iterations: 333

Symmetries present (total): 1

  ( 1  0  0)
  ( 0  1  0)
  ( 0  0  1)

144 k-points: 6 x 6 x 4 Monkhorst-Pack grid
144 k-points in the irreducible part of the Brillouin zone
       k-points in crystal coordinates                weights
   0:    -0.41666667   -0.41666667   -0.37500000          1/144
   1:    -0.41666667   -0.41666667   -0.12500000          1/144
   2:    -0.41666667   -0.41666667    0.12500000          1/144
   3:    -0.41666667   -0.41666667    0.37500000          1/144
   4:    -0.41666667   -0.25000000   -0.37500000          1/144
   5:    -0.41666667   -0.25000000   -0.12500000          1/144
   6:    -0.41666667   -0.25000000    0.12500000          1/144
   7:    -0.41666667   -0.25000000    0.37500000          1/144
   8:    -0.41666667   -0.08333333   -0.37500000          1/144
   9:    -0.41666667   -0.08333333   -0.12500000          1/144
          ...
 143:     0.41666667    0.41666667    0.37500000          1/144

Wave functions: Plane wave expansion
  Cutoff energy: 600.000 eV
  Number of coefficients (min, max): 10068, 10125
  Pulay-stress correction: 0.000000 eV/Ang^3 (de/decut=0.000000)
  Using FFTW library
  ScaLapack parameters: grid=1x1, blocksize=None
  Wavefunction extrapolation:
    Improved wavefunction reuse through dual PAW basis

  Fermi-Dirac: width=0.0010 eV

Eigensolver
   Davidson(niter=2, smin=None, normalize=True)

Densities:
  Coarse grid: 60*35*27 grid
  Fine grid: 120*70*54 grid
  Total Charge: 0.000000

Density mixing:
  Method: difference
  Backend: pulay
  Linear mixing parameter: 0.05
  Mixing with 5 old densities
  Damping of long wave oscillations: 50

Hamiltonian:
  XC and Coulomb potentials evaluated on a 120*70*54 grid
  Using the LDA Exchange-Correlation functional

Total number of cores used: 64
Parallelization over k-points: 16
Domain decomposition: 2 x 2 x 1

Number of atoms: 28
Number of atomic orbitals: 148
Number of bands in calculation: 112
Number of valence electrons: 180
Bands to converge: occupied

... initialized

Initializing position-dependent things.

Density initialized from atomic densities
Creating initial wave functions:
  112 bands from LCAO basis set

    /|         OP              |
   / |O            O        O  |
  /  |       O            O  P |
 *   |O    Mn      O           |
 |   |          OLi          O |
 |   P--O--------------Mn------.
 |  /          Li    O  Mn  O /
 | /LiO           PO         /
 |/       Mn                /
 *Li-----------------------*

Positions:
   0 O     -1.330281   -2.539252   -1.168500    ( 0.0000,  0.0000,  0.0000)
   1 O     -3.152392    2.974909    1.200956    ( 0.0000,  0.0000,  0.0000)
   2 O      2.077234    0.510133    1.506966    ( 0.0000,  0.0000,  0.0000)
   3 O      3.899724   -0.074476   -0.862491    ( 0.0000,  0.0000,  0.0000)
   4 O      2.077424    2.974966    1.507072    ( 0.0000,  0.0000,  0.0000)
   5 O      3.899535   -2.539195   -0.862384    ( 0.0000,  0.0000,  0.0000)
   6 O     -1.330092   -0.074418   -1.168395    ( 0.0000,  0.0000,  0.0000)
   7 O     -3.152581    0.510191    1.201063    ( 0.0000,  0.0000,  0.0000)
   8 O     -4.389675   -1.306969   -0.813152    ( 0.0000,  0.0000,  0.0000)
   9 O     -0.093301    1.742683    1.556268    ( 0.0000,  0.0000,  0.0000)
  10 O      5.136817    1.742683    1.151723    ( 0.0000,  0.0000,  0.0000)
  11 O      0.840444   -1.306969   -1.217697    ( 0.0000,  0.0000,  0.0000)
  12 Mn    -2.557192   -1.307258    0.273595    ( 0.0000,  0.0000,  1.0000)
  13 Mn    -1.925535    1.742972   -2.096623    ( 0.0000,  0.0000, -1.0000)
  14 Mn     3.304335    1.742972    0.064976    ( 0.0000,  0.0000, -1.0000)
  15 Mn     2.672678   -1.307258    2.435195    ( 0.0000,  0.0000,  1.0000)
  16 P     -0.597175   -1.306854   -1.801474    ( 0.0000,  0.0000,  0.0000)
  17 P     -3.885565    1.742568    0.568028    ( 0.0000,  0.0000,  0.0000)
  18 P      1.344318    1.742568    2.140045    ( 0.0000,  0.0000,  0.0000)
  19 P      4.632708   -1.306854   -0.229456    ( 0.0000,  0.0000,  0.0000)
  20 O     -0.636957   -1.306861    1.403074    ( 0.0000,  0.0000,  0.0000)
  21 O     -3.845824    1.742575   -0.977462    ( 0.0000,  0.0000,  0.0000)
  22 O      1.384100    1.742576   -1.064503    ( 0.0000,  0.0000,  0.0000)
  23 O      4.592967   -1.306861    1.306033    ( 0.0000,  0.0000,  0.0000)
  24 Li    -4.856429   -2.832143   -2.200714    ( 0.0000,  0.0000,  0.0000)
  25 Li     0.373571   -2.832143    0.169286    ( 0.0000,  0.0000,  0.0000)
  26 Li    -4.856429    0.217857   -2.200714    ( 0.0000,  0.0000,  0.0000)
  27 Li     0.373571    0.217857    0.169286    ( 0.0000,  0.0000,  0.0000)

Unit cell:
           periodic     x           y           z      points  spacing
  1. axis:    yes   10.460000    0.000000    0.000000    60     0.1743
  2. axis:    yes    0.000000    6.100000    0.000000    35     0.1743
  3. axis:    yes    0.000000    0.000000    4.740000    27     0.1756

  Lengths:  10.460000   6.100000   4.740000
  Angles:   90.000000  90.000000  90.000000

Effective grid spacing dv^(1/3) = 0.1747

                     log10-error:           total        iterations:
           time      wfs    density  force  energy       poisson  magmom
iter:   1  00:37:05                       -220.687772             +0.0000
iter:   2  00:37:27  -0.64  -0.92         -235.498034             +0.0000
iter:   3  00:37:48  -0.40  -0.96         -226.166356             -0.0000
iter:   4  00:38:10  -1.41  -1.29         -225.886861             +0.0000
iter:   5  00:38:31  -1.19  -1.38         -227.585547             +0.0000
iter:   6  00:38:52  -1.39  -1.51         -225.827602             +0.0000
iter:   7  00:39:14  -2.55  -2.06         -225.894366             +0.0000
iter:   8  00:39:35  -2.24  -2.01         -225.652878             -0.0000
iter:   9  00:39:57  -2.65  -2.06         -225.544572             +0.0000
iter:  10  00:40:18  -3.51  -2.93         -225.543183             +0.0000
iter:  11  00:40:39  -3.94  -2.99         -225.545698             +0.0000
iter:  12  00:41:01  -4.30  -3.21         -225.545836             +0.0000
iter:  13  00:41:22  -5.38  -3.36         -225.545743             -0.0000
iter:  14  00:41:44  -5.15  -3.43         -225.545641             +0.0000
iter:  15  00:42:05  -5.32  -3.58         -225.545530             -0.0000
iter:  16  00:42:26  -6.36  -3.71         -225.545509             +0.0000
iter:  17  00:42:48  -6.30  -3.78         -225.545532             -0.0000
iter:  18  00:43:09  -6.67  -3.82         -225.545531             -0.0000
iter:  19  00:43:31  -5.94  -3.85         -225.545495             -0.0000
iter:  20  00:43:52  -7.14  -4.29         -225.545491             -0.0000
iter:  21  00:44:19  -7.88  -4.33         -225.545491             +0.0000
iter:  22  00:44:40  -6.92  -4.35         -225.545495             +0.0000
iter:  23  00:45:01  -6.94  -4.42         -225.545491             -0.0000
iter:  24  00:45:28  -8.47  -4.70    -2.16-225.545491             -0.0000
iter:  25  00:45:55  -7.45  -4.76    -2.50-225.545491             -0.0000
iter:  26  00:46:22  -7.81  -4.83    -2.95-225.545491             -0.0000
iter:  27  00:46:48  -8.68  -5.27    -3.29-225.545491             -0.0000
iter:  28  00:47:15  -9.43  -5.27    -3.52-225.545491             -0.0000
iter:  29  00:47:42  -8.14  -5.33    -3.30-225.545491             -0.0000
iter:  30  00:48:09  -8.66  -5.31    -3.42-225.545491             -0.0000
iter:  31  00:48:35  -9.53  -5.77    -4.16-225.545491             -0.0000
iter:  32  00:49:02  -9.20  -5.82    -3.43-225.545491             -0.0000
iter:  33  00:49:29  -9.68  -5.84    -3.48-225.545491             -0.0000
iter:  34  00:49:56 -10.90  -6.17    -4.32-225.545491             -0.0000
iter:  35  00:50:23  -9.46  -6.24    -4.12-225.545491             -0.0000
iter:  36  00:50:49  -9.66  -6.19    -3.93-225.545491             -0.0000
iter:  37  00:51:16 -10.97  -6.39    -4.27-225.545491             -0.0000
iter:  38  00:51:43 -10.94  -6.65    -4.53-225.545491             -0.0000
iter:  39  00:52:09 -11.60  -6.73    -4.78-225.545491             -0.0000
iter:  40  00:52:36 -12.28  -6.79    -4.80-225.545491             -0.0000
iter:  41  00:53:03 -12.94  -6.81    -5.42-225.545491             -0.0000
iter:  42  00:53:30 -12.51  -6.84    -5.24-225.545491             -0.0000
iter:  43  00:53:56 -12.89  -6.93    -4.87-225.545491             -0.0000
iter:  44  00:54:23 -12.33  -7.07    -5.04-225.545491             -0.0000
iter:  45  00:54:50 -13.74  -7.19    -5.67-225.545491             -0.0000
iter:  46  00:55:17 -12.71  -7.23    -4.74-225.545491             -0.0000
iter:  47  00:55:43 -12.37  -7.46    -5.50-225.545491             -0.0000
iter:  48  00:56:10 -13.45  -7.75    -5.79-225.545491             -0.0000
iter:  49  00:56:37 -14.13  -7.82    -5.85-225.545491             -0.0000
iter:  50  00:57:04 -12.96  -7.84    -5.59-225.545491             -0.0000
iter:  51  00:57:30 -13.44  -7.82    -6.00-225.545491             -0.0000

Converged after 51 iterations.

Dipole moment: (13.159426, 1.716477, -5.526706) |e|*Ang

Total magnetic moment: (0.000000, 0.000000, -0.000000)
Local magnetic moments:
   0 O  ( 0.000000,  0.000000,  0.001041)
   1 O  ( 0.000000,  0.000000, -0.001005)
   2 O  ( 0.000000,  0.000000, -0.001059)
   3 O  ( 0.000000,  0.000000,  0.001039)
   4 O  ( 0.000000,  0.000000, -0.001067)
   5 O  ( 0.000000,  0.000000,  0.001047)
   6 O  ( 0.000000,  0.000000,  0.001033)
   7 O  ( 0.000000,  0.000000, -0.000997)
   8 O  ( 0.000000,  0.000000,  0.019774)
   9 O  ( 0.000000,  0.000000, -0.019689)
  10 O  ( 0.000000,  0.000000, -0.019799)
  11 O  ( 0.000000,  0.000000,  0.019777)
  12 Mn ( 0.000000,  0.000000,  4.601554)
  13 Mn ( 0.000000,  0.000000, -4.601294)
  14 Mn ( 0.000000,  0.000000, -4.601549)
  15 Mn ( 0.000000,  0.000000,  4.601586)
  16 P  ( 0.000000,  0.000000,  0.001280)
  17 P  ( 0.000000,  0.000000, -0.001357)
  18 P  ( 0.000000,  0.000000, -0.001298)
  19 P  ( 0.000000,  0.000000,  0.001294)
  20 O  ( 0.000000,  0.000000,  0.018075)
  21 O  ( 0.000000,  0.000000, -0.018195)
  22 O  ( 0.000000,  0.000000, -0.018081)
  23 O  ( 0.000000,  0.000000,  0.018066)
  24 Li ( 0.000000,  0.000000, -0.000009)
  25 Li ( 0.000000,  0.000000, -0.000000)
  26 Li ( 0.000000,  0.000000, -0.000009)
  27 Li ( 0.000000,  0.000000, -0.000000)

Energy contributions relative to reference atoms: (reference = -196157.275402)

Kinetic:       +242.234109
Potential:     -214.881400
External:        +0.000000
XC:            -254.815321
Entropy (-ST):   -0.000000
Local:           +1.917121
Free energy:   -225.545491
Extrapolated:  -225.545491

Spin contamination: 9.747570 electrons
Showing only first 2 kpts
                      Up                     Down
 Kpt  Band  Eigenvalues  Occupancy  Eigenvalues  Occupancy
  0    88      3.92232    0.00694      3.92797    0.00694
  0    89      3.97104    0.00694      3.98008    0.00694
  0    90      8.66759    0.00000      8.66603    0.00000
  0    91      8.68926    0.00000      8.68665    0.00000

  1    88      3.91869    0.00694      3.92529    0.00694
  1    89      3.97479    0.00694      3.98323    0.00694
  1    90      8.51296    0.00000      8.51165    0.00000
  1    91      8.53138    0.00000      8.52929    0.00000

Fermi level: 5.32020

Gap: 3.769 eV
Transition (v -> c):
  (s=1, k=70, n=89, [-0.08, 0.42, 0.12]) -> (s=1, k=86, n=90, [0.08, 0.08, 0.12])
Writing to born-0.01-21z-.gpw (mode='all')