User:   madkru@g031.nifl.fysik.dtu.dk
Date:   Tue Mar 23 02:53:48 2021
Arch:   x86_64
Pid:    47913
Python: 3.7.4
gpaw:   /home/niflheim/madkru/venv_folder/gpaw/gpaw (d0d1ca1c71)
_gpaw:  /home/niflheim/madkru/venv_folder/gpaw/build/lib.linux-x86_64-sandybridge-3.7/
        _gpaw.cpython-37m-x86_64-linux-gnu.so (4fd39e8b1e)
ase:    /home/niflheim/madkru/venv_folder/ase/ase (version 3.21.0b1-7e6c206a91)
numpy:  /home/niflheim/madkru/venv_folder/lib/python3.7/site-packages/numpy (version 1.19.4)
scipy:  /home/niflheim/madkru/venv_folder/lib/python3.7/site-packages/scipy (version 1.5.4)
units:  Angstrom and eV
cores: 32
OMP_NUM_THREADS: 1

Input parameters:
  convergence: {bands: occupied,
                density: 0.0001,
                eigenstates: 4e-08,
                energy: 0.0005,
                forces: 1e-06}
  kpts: [6 6 4]
  mode: {ecut: 600.0,
         gammacentered: False,
         name: pw}
  occupations: {fixmagmom: False,
                name: fermi-dirac,
                width: 0.001}
  setups: {Mn: :d,3.0}
  symmetry: {point_group: False,
             time_reversal: False}

System changes: positions, numbers, cell, pbc, initial_charges, initial_magmoms

Initialize ...

O-setup:
  name: Oxygen
  id: 9b9d51c344dea68c822856295a461509
  Z: 8.0
  valence: 6
  core: 2
  charge: 0.0
  file: /home/modules/software/GPAW-setups/0.9.20000/O.LDA.gz
  compensation charges: gauss, rc=0.21, lmax=2
  cutoffs: 1.17(filt), 0.83(core),
  valence states:
                energy  radius
    2s(2.00)   -23.752   0.688
    2p(4.00)    -9.195   0.598
    *s           3.459   0.688
    *p          18.016   0.598
    *d           0.000   0.619

  Using partial waves for O as LCAO basis

Mn-setup:
  name: Manganese
  id: 0d715a8018be061a6e9ea6f2d364ac92
  Z: 25.0
  valence: 15
  core: 10
  charge: 0.0
  Hubbard U: 3.000000 eV (l=2, scale=True)
  file: /home/modules/software/GPAW-setups/0.9.20000/Mn.LDA.gz
  compensation charges: gauss, rc=0.38, lmax=2
  cutoffs: 2.14(filt), 0.86(core),
  valence states:
                energy  radius
    3s(2.00)   -85.387   1.275
    4s(2.00)    -5.282   1.275
    3p(6.00)   -54.493   1.281
    4p(0.00)    -1.471   1.281
    3d(5.00)    -7.009   1.138
    *d          20.203   1.138

[...]

P-setup:
  name: Phosphorus
  id: a5561c299094968922a179ab894d2e2d
  Z: 15.0
  valence: 5
  core: 10
  charge: 0.0
  file: /home/modules/software/GPAW-setups/0.9.20000/P.LDA.gz
  compensation charges: gauss, rc=0.30, lmax=2
  cutoffs: 1.69(filt), 1.81(core),
  valence states:
                energy  radius
    3s(2.00)   -14.015   0.953
    3p(3.00)    -5.596   0.953
    *s          13.197   0.953
    *p          21.615   0.953
    *d           0.000   0.953

[...]

Li-setup:
  name: Lithium
  id: b73562207f97a71b6967473b66fe8b65
  Z: 3.0
  valence: 1
  core: 2
  charge: 0.0
  file: /home/modules/software/GPAW-setups/0.9.20000/Li.LDA.gz
  compensation charges: gauss, rc=0.33, lmax=2
  cutoffs: 1.91(filt), 2.55(core),
  valence states:
                energy  radius
    2s(1.00)    -2.874   1.058
    2p(0.00)    -1.126   1.058
    *s          24.338   1.058

  Using partial waves for Li as LCAO basis

Reference energy: -196157.275402

Spin-polarized calculation.
Magnetic moment: 0.000000

Convergence criteria:
  Maximum total energy change: 0.0005 eV / electron
  Maximum integral of absolute density change: 0.0001 electrons
  Maximum integral of absolute eigenstate change: 4e-08 eV^2
  Maximum change in atomic force: 1e-06 eV / Ang
  Maximum number of iterations: 333

Symmetries present (total): 1

  ( 1  0  0)
  ( 0  1  0)
  ( 0  0  1)

144 k-points: 6 x 6 x 4 Monkhorst-Pack grid
144 k-points in the irreducible part of the Brillouin zone
       k-points in crystal coordinates                weights
   0:    -0.41666667   -0.41666667   -0.37500000          1/144
   1:    -0.41666667   -0.41666667   -0.12500000          1/144
   2:    -0.41666667   -0.41666667    0.12500000          1/144
   3:    -0.41666667   -0.41666667    0.37500000          1/144
   4:    -0.41666667   -0.25000000   -0.37500000          1/144
   5:    -0.41666667   -0.25000000   -0.12500000          1/144
   6:    -0.41666667   -0.25000000    0.12500000          1/144
   7:    -0.41666667   -0.25000000    0.37500000          1/144
   8:    -0.41666667   -0.08333333   -0.37500000          1/144
   9:    -0.41666667   -0.08333333   -0.12500000          1/144
          ...
 143:     0.41666667    0.41666667    0.37500000          1/144

Wave functions: Plane wave expansion
  Cutoff energy: 600.000 eV
  Number of coefficients (min, max): 10068, 10125
  Pulay-stress correction: 0.000000 eV/Ang^3 (de/decut=0.000000)
  Using FFTW library
  ScaLapack parameters: grid=1x1, blocksize=None
  Wavefunction extrapolation:
    Improved wavefunction reuse through dual PAW basis

  Fermi-Dirac: width=0.0010 eV

Eigensolver
   Davidson(niter=2, smin=None, normalize=True)

Densities:
  Coarse grid: 60*35*27 grid
  Fine grid: 120*70*54 grid
  Total Charge: 0.000000

Density mixing:
  Method: difference
  Backend: pulay
  Linear mixing parameter: 0.05
  Mixing with 5 old densities
  Damping of long wave oscillations: 50

Hamiltonian:
  XC and Coulomb potentials evaluated on a 120*70*54 grid
  Using the LDA Exchange-Correlation functional

Total number of cores used: 32
Parallelization over k-points: 16
Domain decomposition: 2 x 1 x 1

Number of atoms: 28
Number of atomic orbitals: 148
Number of bands in calculation: 112
Number of valence electrons: 180
Bands to converge: occupied

... initialized

Initializing position-dependent things.

Density initialized from atomic densities
Creating initial wave functions:
  112 bands from LCAO basis set

    /|         OP              |
   / |O            O        O  |
  /  |       O            O  P |
 *   |O    Mn      O           |
 |   |          OLi          O |
 |   P--O--------------Mn------.
 |  /          Li    O  Mn  O /
 | /LiO           PO         /
 |/       Mn                /
 *Li-----------------------*

Positions:
   0 O     -1.330281   -2.539252   -1.168500    ( 0.0000,  0.0000,  0.0000)
   1 O     -3.152392    2.974909    1.200956    ( 0.0000,  0.0000,  0.0000)
   2 O      2.077234    0.510133    1.506966    ( 0.0000,  0.0000,  0.0000)
   3 O      3.899724   -0.074476   -0.862491    ( 0.0000,  0.0000,  0.0000)
   4 O      2.077424    2.974966    1.507072    ( 0.0000,  0.0000,  0.0000)
   5 O      3.899535   -2.539195   -0.862384    ( 0.0000,  0.0000,  0.0000)
   6 O     -1.330092   -0.074418   -1.168395    ( 0.0000,  0.0000,  0.0000)
   7 O     -3.152581    0.510191    1.201063    ( 0.0000,  0.0000,  0.0000)
   8 O     -4.389675   -1.306969   -0.813152    ( 0.0000,  0.0000,  0.0000)
   9 O     -0.093301    1.742683    1.556268    ( 0.0000,  0.0000,  0.0000)
  10 O      5.126817    1.742683    1.151723    ( 0.0000,  0.0000,  0.0000)
  11 O      0.840444   -1.306969   -1.217697    ( 0.0000,  0.0000,  0.0000)
  12 Mn    -2.557192   -1.307258    0.273595    ( 0.0000,  0.0000,  1.0000)
  13 Mn    -1.925535    1.742972   -2.096623    ( 0.0000,  0.0000, -1.0000)
  14 Mn     3.304335    1.742972    0.064976    ( 0.0000,  0.0000, -1.0000)
  15 Mn     2.672678   -1.307258    2.435195    ( 0.0000,  0.0000,  1.0000)
  16 P     -0.597175   -1.306854   -1.801474    ( 0.0000,  0.0000,  0.0000)
  17 P     -3.885565    1.742568    0.568028    ( 0.0000,  0.0000,  0.0000)
  18 P      1.344318    1.742568    2.140045    ( 0.0000,  0.0000,  0.0000)
  19 P      4.632708   -1.306854   -0.229456    ( 0.0000,  0.0000,  0.0000)
  20 O     -0.636957   -1.306861    1.403074    ( 0.0000,  0.0000,  0.0000)
  21 O     -3.845824    1.742575   -0.967462    ( 0.0000,  0.0000,  0.0000)
  22 O      1.384100    1.742576   -1.064503    ( 0.0000,  0.0000,  0.0000)
  23 O      4.592967   -1.306861    1.306033    ( 0.0000,  0.0000,  0.0000)
  24 Li    -4.856429   -2.832143   -2.200714    ( 0.0000,  0.0000,  0.0000)
  25 Li     0.373571   -2.832143    0.169286    ( 0.0000,  0.0000,  0.0000)
  26 Li    -4.856429    0.217857   -2.200714    ( 0.0000,  0.0000,  0.0000)
  27 Li     0.373571    0.217857    0.169286    ( 0.0000,  0.0000,  0.0000)

Unit cell:
           periodic     x           y           z      points  spacing
  1. axis:    yes   10.460000    0.000000    0.000000    60     0.1743
  2. axis:    yes    0.000000    6.100000    0.000000    35     0.1743
  3. axis:    yes    0.000000    0.000000    4.740000    27     0.1756

  Lengths:  10.460000   6.100000   4.740000
  Angles:   90.000000  90.000000  90.000000

Effective grid spacing dv^(1/3) = 0.1747

                     log10-error:           total        iterations:
           time      wfs    density  force  energy       poisson  magmom
iter:   1  02:56:50                       -220.678226             +0.0000
iter:   2  02:57:30  -0.64  -0.92         -235.488343             +0.0000
iter:   3  02:58:09  -0.40  -0.96         -226.166742             -0.0000
iter:   4  02:58:49  -1.42  -1.29         -225.887151             +0.0000
iter:   5  02:59:28  -1.19  -1.38         -227.581369             +0.0000
iter:   6  03:00:07  -1.39  -1.51         -225.827346             +0.0000
iter:   7  03:00:47  -2.56  -2.06         -225.894211             +0.0000
iter:   8  03:01:26  -2.24  -2.01         -225.651112             -0.0000
iter:   9  03:02:06  -2.65  -2.07         -225.544839             +0.0000
iter:  10  03:02:45  -3.52  -2.93         -225.543481             +0.0000
iter:  11  03:03:25  -3.95  -3.00         -225.545837             +0.0000
iter:  12  03:04:04  -4.29  -3.21         -225.546012             +0.0000
iter:  13  03:04:43  -5.32  -3.35         -225.545895             -0.0000
iter:  14  03:05:23  -5.11  -3.43         -225.545779             -0.0000
iter:  15  03:06:02  -5.24  -3.58         -225.545646             -0.0000
iter:  16  03:06:42  -6.24  -3.72         -225.545639             +0.0000
iter:  17  03:07:21  -6.45  -3.81         -225.545655             -0.0000
iter:  18  03:08:00  -6.70  -3.86         -225.545655             -0.0000
iter:  19  03:08:40  -5.99  -3.87         -225.545623             -0.0000
iter:  20  03:09:19  -7.24  -4.37         -225.545621             -0.0000
iter:  21  03:10:09  -7.44  -4.41         -225.545620             -0.0000
iter:  22  03:10:48  -7.06  -4.46         -225.545624             -0.0000
iter:  23  03:11:28  -7.38  -4.44         -225.545620             -0.0000
iter:  24  03:12:18  -7.85  -4.54    -2.28-225.545620             +0.0000
iter:  25  03:12:57  -7.19  -4.60         -225.545622             +0.0000
iter:  26  03:13:37  -7.23  -4.57         -225.545620             +0.0000
iter:  27  03:14:26  -8.49  -4.86    -2.43-225.545620             +0.0000
iter:  28  03:15:16  -7.49  -4.86    -2.97-225.545620             +0.0000
iter:  29  03:16:06  -8.53  -5.10    -3.17-225.545620             +0.0000
iter:  30  03:16:56  -9.31  -5.25    -3.46-225.545620             +0.0000
iter:  31  03:17:46  -9.35  -5.28    -3.23-225.545620             +0.0000
iter:  32  03:18:36  -8.79  -5.27    -3.33-225.545620             +0.0000
iter:  33  03:19:26  -9.29  -5.47    -3.72-225.545620             +0.0000
iter:  34  03:20:16  -9.64  -5.50    -3.87-225.545620             +0.0000
iter:  35  03:21:06  -9.16  -5.52    -3.25-225.545620             -0.0000
iter:  36  03:21:56  -9.94  -5.70    -3.82-225.545620             -0.0000
iter:  37  03:22:46 -10.18  -5.83    -4.37-225.545620             -0.0000
iter:  38  03:23:36 -10.32  -5.90    -3.89-225.545620             -0.0000
iter:  39  03:24:26 -10.61  -6.30    -4.61-225.545620             -0.0000
iter:  40  03:25:16 -12.00  -6.63    -4.96-225.545620             -0.0000
iter:  41  03:26:06 -11.18  -6.58    -4.53-225.545620             -0.0000
iter:  42  03:26:56 -11.15  -6.71    -4.82-225.545620             -0.0000
iter:  43  03:27:46 -11.71  -6.66    -5.19-225.545620             -0.0000
iter:  44  03:28:36 -11.49  -6.85    -4.93-225.545620             -0.0000
iter:  45  03:29:26 -11.90  -6.90    -4.48-225.545620             -0.0000
iter:  46  03:30:16 -12.14  -7.33    -5.36-225.545620             -0.0000
iter:  47  03:31:06 -13.17  -7.44    -5.98-225.545620             -0.0000
iter:  48  03:31:56 -12.26  -7.44    -5.29-225.545620             -0.0000
iter:  49  03:32:46 -13.32  -7.73    -5.51-225.545620             -0.0000
iter:  50  03:33:36 -13.31  -7.90    -5.68-225.545620             -0.0000
iter:  51  03:34:26 -13.35  -7.84    -5.55-225.545620             -0.0000
iter:  52  03:35:16 -14.35  -8.08    -6.09-225.545620             -0.0000

Converged after 52 iterations.

Dipole moment: (13.168484, 1.716402, -5.514510) |e|*Ang

Total magnetic moment: (0.000000, 0.000000, -0.000000)
Local magnetic moments:
   0 O  ( 0.000000,  0.000000,  0.001067)
   1 O  ( 0.000000,  0.000000, -0.001108)
   2 O  ( 0.000000,  0.000000, -0.001057)
   3 O  ( 0.000000,  0.000000,  0.001000)
   4 O  ( 0.000000,  0.000000, -0.001065)
   5 O  ( 0.000000,  0.000000,  0.001008)
   6 O  ( 0.000000,  0.000000,  0.001059)
   7 O  ( 0.000000,  0.000000, -0.001100)
   8 O  ( 0.000000,  0.000000,  0.019814)
   9 O  ( 0.000000,  0.000000, -0.019824)
  10 O  ( 0.000000,  0.000000, -0.020006)
  11 O  ( 0.000000,  0.000000,  0.019735)
  12 Mn ( 0.000000,  0.000000,  4.601526)
  13 Mn ( 0.000000,  0.000000, -4.601601)
  14 Mn ( 0.000000,  0.000000, -4.600729)
  15 Mn ( 0.000000,  0.000000,  4.601576)
  16 P  ( 0.000000,  0.000000,  0.001307)
  17 P  ( 0.000000,  0.000000, -0.001426)
  18 P  ( 0.000000,  0.000000, -0.001303)
  19 P  ( 0.000000,  0.000000,  0.001270)
  20 O  ( 0.000000,  0.000000,  0.018066)
  21 O  ( 0.000000,  0.000000, -0.018042)
  22 O  ( 0.000000,  0.000000, -0.017952)
  23 O  ( 0.000000,  0.000000,  0.018069)
  24 Li ( 0.000000,  0.000000, -0.000018)
  25 Li ( 0.000000,  0.000000, -0.000000)
  26 Li ( 0.000000,  0.000000, -0.000019)
  27 Li ( 0.000000,  0.000000, -0.000000)

Energy contributions relative to reference atoms: (reference = -196157.275402)

Kinetic:       +242.331702
Potential:     -214.964050
External:        +0.000000
XC:            -254.829792
Entropy (-ST):   -0.000000
Local:           +1.916520
Free energy:   -225.545620
Extrapolated:  -225.545620

Spin contamination: 9.747402 electrons
Showing only first 2 kpts
                      Up                     Down
 Kpt  Band  Eigenvalues  Occupancy  Eigenvalues  Occupancy
  0    88      3.92039    0.00694      3.92652    0.00694
  0    89      3.97130    0.00694      3.99045    0.00694
  0    90      8.66932    0.00000      8.66076    0.00000
  0    91      8.69067    0.00000      8.69148    0.00000

  1    88      3.91703    0.00694      3.92381    0.00694
  1    89      3.97494    0.00694      3.99482    0.00694
  1    90      8.51283    0.00000      8.50633    0.00000
  1    91      8.53763    0.00000      8.53406    0.00000

Fermi level: 5.32174

Gap: 3.763 eV
Transition (v -> c):
  (s=1, k=74, n=89, [0.08, -0.42, 0.12]) -> (s=1, k=86, n=90, [0.08, 0.08, 0.12])