User:   madkru@i025.nifl.fysik.dtu.dk
Date:   Thu Mar 18 08:36:26 2021
Arch:   x86_64
Pid:    9773
Python: 3.7.4
gpaw:   /home/niflheim/madkru/venv_folder/gpaw/gpaw (d0d1ca1c71)
_gpaw:  /home/niflheim/madkru/venv_folder/gpaw/build/lib.linux-x86_64-ivybridge-3.7/
        _gpaw.cpython-37m-x86_64-linux-gnu.so (4fd39e8b1e)
ase:    /home/niflheim/madkru/venv_folder/ase/ase (version 3.21.0b1-7e6c206a91)
numpy:  /home/niflheim/madkru/venv_folder/lib/python3.7/site-packages/numpy (version 1.19.4)
scipy:  /home/niflheim/madkru/venv_folder/lib/python3.7/site-packages/scipy (version 1.5.4)
units:  Angstrom and eV
cores: 32
OMP_NUM_THREADS: 1

Input parameters:
  convergence: {forces: 1e-06}
  kpts: [6 6 4]
  mode: {ecut: 600.0,
         gammacentered: False,
         name: pw}
  occupations: {fixmagmom: False,
                name: fermi-dirac,
                width: 0.001}
  setups: {Mn: :d,3.0}
  symmetry: {point_group: False}

System changes: positions, numbers, cell, pbc, initial_charges, initial_magmoms

Initialize ...

O-setup:
  name: Oxygen
  id: 9b9d51c344dea68c822856295a461509
  Z: 8.0
  valence: 6
  core: 2
  charge: 0.0
  file: /home/modules/software/GPAW-setups/0.9.20000/O.LDA.gz
  compensation charges: gauss, rc=0.21, lmax=2
  cutoffs: 1.17(filt), 0.83(core),
  valence states:
                energy  radius
    2s(2.00)   -23.752   0.688
    2p(4.00)    -9.195   0.598
    *s           3.459   0.688
    *p          18.016   0.598
    *d           0.000   0.619

  Using partial waves for O as LCAO basis

Mn-setup:
  name: Manganese
  id: 0d715a8018be061a6e9ea6f2d364ac92
  Z: 25.0
  valence: 15
  core: 10
  charge: 0.0
  Hubbard U: 3.000000 eV (l=2, scale=True)
  file: /home/modules/software/GPAW-setups/0.9.20000/Mn.LDA.gz
  compensation charges: gauss, rc=0.38, lmax=2
  cutoffs: 2.14(filt), 0.86(core),
  valence states:
                energy  radius
    3s(2.00)   -85.387   1.275
    4s(2.00)    -5.282   1.275
    3p(6.00)   -54.493   1.281
    4p(0.00)    -1.471   1.281
    3d(5.00)    -7.009   1.138
    *d          20.203   1.138

[...]

P-setup:
  name: Phosphorus
  id: a5561c299094968922a179ab894d2e2d
  Z: 15.0
  valence: 5
  core: 10
  charge: 0.0
  file: /home/modules/software/GPAW-setups/0.9.20000/P.LDA.gz
  compensation charges: gauss, rc=0.30, lmax=2
  cutoffs: 1.69(filt), 1.81(core),
  valence states:
                energy  radius
    3s(2.00)   -14.015   0.953
    3p(3.00)    -5.596   0.953
    *s          13.197   0.953
    *p          21.615   0.953
    *d           0.000   0.953

[...]

Li-setup:
  name: Lithium
  id: b73562207f97a71b6967473b66fe8b65
  Z: 3.0
  valence: 1
  core: 2
  charge: 0.0
  file: /home/modules/software/GPAW-setups/0.9.20000/Li.LDA.gz
  compensation charges: gauss, rc=0.33, lmax=2
  cutoffs: 1.91(filt), 2.55(core),
  valence states:
                energy  radius
    2s(1.00)    -2.874   1.058
    2p(0.00)    -1.126   1.058
    *s          24.338   1.058

  Using partial waves for Li as LCAO basis

Reference energy: -196157.275402

Spin-polarized calculation.
Magnetic moment: 0.000000

Convergence criteria:
  Maximum total energy change: 0.0005 eV / electron
  Maximum integral of absolute density change: 0.0001 electrons
  Maximum integral of absolute eigenstate change: 4e-08 eV^2
  Maximum change in atomic force: 1e-06 eV / Ang
  Maximum number of iterations: 333

Symmetries present (total): 1

  ( 1  0  0)
  ( 0  1  0)
  ( 0  0  1)

144 k-points: 6 x 6 x 4 Monkhorst-Pack grid
72 k-points in the irreducible part of the Brillouin zone
       k-points in crystal coordinates                weights
   0:     0.08333333   -0.41666667   -0.37500000          2/144
   1:     0.08333333   -0.41666667   -0.12500000          2/144
   2:     0.08333333   -0.41666667    0.12500000          2/144
   3:     0.08333333   -0.41666667    0.37500000          2/144
   4:     0.08333333   -0.25000000   -0.37500000          2/144
   5:     0.08333333   -0.25000000   -0.12500000          2/144
   6:     0.08333333   -0.25000000    0.12500000          2/144
   7:     0.08333333   -0.25000000    0.37500000          2/144
   8:     0.08333333   -0.08333333   -0.37500000          2/144
   9:     0.08333333   -0.08333333   -0.12500000          2/144
          ...
  71:     0.41666667    0.41666667    0.37500000          2/144

Wave functions: Plane wave expansion
  Cutoff energy: 600.000 eV
  Number of coefficients (min, max): 10068, 10125
  Pulay-stress correction: 0.000000 eV/Ang^3 (de/decut=0.000000)
  Using FFTW library
  ScaLapack parameters: grid=1x1, blocksize=None
  Wavefunction extrapolation:
    Improved wavefunction reuse through dual PAW basis

  Fermi-Dirac: width=0.0010 eV

Eigensolver
   Davidson(niter=2, smin=None, normalize=True)

Densities:
  Coarse grid: 60*35*27 grid
  Fine grid: 120*70*54 grid
  Total Charge: 0.000000

Density mixing:
  Method: difference
  Backend: pulay
  Linear mixing parameter: 0.05
  Mixing with 5 old densities
  Damping of long wave oscillations: 50

Hamiltonian:
  XC and Coulomb potentials evaluated on a 120*70*54 grid
  Using the LDA Exchange-Correlation functional

Total number of cores used: 32
Parallelization over k-points: 32

Number of atoms: 28
Number of atomic orbitals: 148
Number of bands in calculation: 112
Number of valence electrons: 180
Bands to converge: occupied

... initialized

Initializing position-dependent things.

Density initialized from atomic densities
Creating initial wave functions:
  112 bands from LCAO basis set

     .-------------------------Li
    /|                O        |
   Li|   O      O  P           |
  /  |P           LiOMn      O |
 *   | O    O           Mn     |
 |   | O        Li       O     |
 |   .--Mn----------O----O-----.
 | O/      MO             P   /
 | /         P  O      O     /
 |/       O                 /

Positions:
   0 O      3.526148    0.292891    1.032214    ( 0.0000,  0.0000,  0.0000)
   1 O      1.704036    5.807052    3.401670    ( 0.0000,  0.0000,  0.0000)
   2 O      6.933663    3.342276    3.707680    ( 0.0000,  0.0000,  0.0000)
   3 O      8.756153    2.757667    1.338223    ( 0.0000,  0.0000,  0.0000)
   4 O      6.933852    5.807109    3.707786    ( 0.0000,  0.0000,  0.0000)
   5 O      8.755964    0.292948    1.338330    ( 0.0000,  0.0000,  0.0000)
   6 O      3.526337    2.757724    1.032320    ( 0.0000,  0.0000,  0.0000)
   7 O      1.703847    3.342333    3.401777    ( 0.0000,  0.0000,  0.0000)
   8 O      0.466754    1.525174    1.387562    ( 0.0000,  0.0000,  0.0000)
   9 O      4.763127    4.574826    3.756983    ( 0.0000,  0.0000,  0.0000)
  10 O      9.993246    4.574826    3.352438    ( 0.0000,  0.0000,  0.0000)
  11 O      5.696873    1.525174    0.983017    ( 0.0000,  0.0000,  0.0000)
  12 Mn     2.299237    1.524885    2.474309    ( 0.0000,  0.0000,  1.0000)
  13 Mn     2.930893    4.575115    0.104091    ( 0.0000,  0.0000, -1.0000)
  14 Mn     8.160763    4.575115    2.265691    ( 0.0000,  0.0000, -1.0000)
  15 Mn     7.529107    1.524885    4.635909    ( 0.0000,  0.0000,  1.0000)
  16 P      4.259254    1.525289    0.399241    ( 0.0000,  0.0000,  0.0000)
  17 P      0.970863    4.574711    2.768742    ( 0.0000,  0.0000,  0.0000)
  18 P      6.200746    4.574711    4.340759    ( 0.0000,  0.0000,  0.0000)
  19 P      9.489137    1.525289    1.971258    ( 0.0000,  0.0000,  0.0000)
  20 O      4.219472    1.525281    3.603789    ( 0.0000,  0.0000,  0.0000)
  21 O      1.010604    4.574718    1.233252    ( 0.0000,  0.0000,  0.0000)
  22 O      6.240528    4.574719    1.136211    ( 0.0000,  0.0000,  0.0000)
  23 O      9.449396    1.525282    3.506748    ( 0.0000,  0.0000,  0.0000)
  24 Li    -0.000000   -0.000000   -0.000000    ( 0.0000,  0.0000,  0.0000)
  25 Li     5.230000   -0.000000    2.370000    ( 0.0000,  0.0000,  0.0000)
  26 Li     0.000000    3.050000   -0.000000    ( 0.0000,  0.0000,  0.0000)
  27 Li     5.230000    3.050000    2.370000    ( 0.0000,  0.0000,  0.0000)

Unit cell:
           periodic     x           y           z      points  spacing
  1. axis:    yes   10.460000    0.000000    0.000000    60     0.1743
  2. axis:    yes    0.000000    6.100000    0.000000    35     0.1743
  3. axis:    yes    0.000000    0.000000    4.740000    27     0.1756

  Lengths:  10.460000   6.100000   4.740000
  Angles:   90.000000  90.000000  90.000000

Effective grid spacing dv^(1/3) = 0.1747

                     log10-error:           total        iterations:
           time      wfs    density  force  energy       poisson  magmom
iter:   1  08:38:14                       -220.688584             +0.0000
iter:   2  08:38:39  -0.64  -0.92         -235.504051             -0.0000
iter:   3  08:39:04  -0.40  -0.96         -226.168972             +0.0000
iter:   4  08:39:29  -1.41  -1.29         -225.888539             -0.0000
iter:   5  08:39:53  -1.19  -1.38         -227.589672             -0.0000
iter:   6  08:40:18  -1.39  -1.51         -225.829397             -0.0000
iter:   7  08:40:43  -2.57  -2.06         -225.899435             -0.0000
iter:   8  08:41:08  -2.23  -2.01         -225.642120             -0.0000
iter:   9  08:41:33  -2.68  -2.09         -225.547027             +0.0000
iter:  10  08:41:58  -3.55  -2.95         -225.546253             -0.0000
iter:  11  08:42:23  -3.95  -3.00         -225.547815             -0.0000
iter:  12  08:42:48  -4.29  -3.22         -225.547993             +0.0000
iter:  13  08:43:13  -5.37  -3.36         -225.547883             +0.0000
iter:  14  08:43:38  -5.18  -3.44         -225.547735             +0.0000
iter:  15  08:44:03  -5.36  -3.60         -225.547649             +0.0000
iter:  16  08:44:27  -6.31  -3.68         -225.547634             +0.0000
iter:  17  08:44:52  -6.27  -3.76         -225.547653             +0.0000
iter:  18  08:45:17  -6.76  -3.81         -225.547654             +0.0000
iter:  19  08:45:42  -5.82  -3.83         -225.547618             +0.0000
iter:  20  08:46:07  -7.02  -4.42         -225.547615             +0.0000
iter:  21  08:46:39  -7.83  -4.69         -225.547613             +0.0000
iter:  22  08:47:05  -7.22  -4.78         -225.547611             +0.0000
iter:  23  08:47:37  -7.89  -4.77    -3.03-225.547610             +0.0000
iter:  24  08:48:09  -8.53  -4.92    -3.02-225.547611             +0.0000
iter:  25  08:48:42  -7.42  -4.94    -2.56-225.547611             +0.0000
iter:  26  08:49:15  -8.05  -4.94    -2.83-225.547610             +0.0000
iter:  27  08:49:47  -7.80  -5.05    -3.17-225.547611             +0.0000
iter:  28  08:50:20  -8.06  -5.02    -2.87-225.547610             +0.0000
iter:  29  08:50:52  -8.22  -5.25    -2.88-225.547611             +0.0000
iter:  30  08:51:25  -9.41  -5.60    -3.59-225.547610             +0.0000
iter:  31  08:51:58  -9.55  -5.71    -3.88-225.547610             +0.0000
iter:  32  08:52:30 -10.00  -5.81    -3.85-225.547610             +0.0000
iter:  33  08:53:03  -9.13  -5.91    -3.40-225.547610             +0.0000
iter:  34  08:53:35 -10.51  -6.06    -4.00-225.547610             +0.0000
iter:  35  08:54:08 -10.37  -6.26    -3.88-225.547610             +0.0000
[...]
  1    90      8.47803    0.00000      8.47803    0.00000
  1    91      8.54209    0.00000      8.54209    0.00000

Fermi level: 5.31838

Gap: 3.778 eV
Transition (v -> c):
  (s=0, k=1, n=89, [0.08, -0.42, -0.12]) -> (s=0, k=14, n=90, [0.08, 0.08, 0.12])
Writing to LiMnPO4.gpw (mode='')

Forces in eV/Ang:
  0 O    -0.00007   -0.00032   -0.00006
  1 O     0.00006    0.00034   -0.00004
  2 O     0.00009   -0.00032    0.00004
  3 O    -0.00008    0.00034    0.00002
  4 O     0.00007    0.00032    0.00006
  5 O    -0.00006   -0.00034    0.00004
  6 O    -0.00009    0.00032   -0.00004
  7 O     0.00008   -0.00034   -0.00002
  8 O     0.00002    0.00002   -0.00007
  9 O     0.00003   -0.00002    0.00010
 10 O    -0.00002   -0.00002    0.00007
 11 O    -0.00003    0.00002   -0.00010
 12 Mn    0.00002    0.00000   -0.00007
 13 Mn    0.00006   -0.00000    0.00012
 14 Mn   -0.00002   -0.00000    0.00007
 15 Mn   -0.00006    0.00000   -0.00012
 16 P     0.00001    0.00001   -0.00002
 17 P    -0.00007   -0.00000    0.00010
 18 P    -0.00001   -0.00001    0.00002
 19 P     0.00007    0.00000   -0.00010
 20 O    -0.00002   -0.00001    0.00010
 21 O    -0.00011    0.00001    0.00022
 22 O     0.00002    0.00001   -0.00010
 23 O     0.00011   -0.00001   -0.00022
 24 Li   -0.00000    0.00000    0.00000
 25 Li   -0.00000   -0.00000    0.00000
 26 Li   -0.00000   -0.00000    0.00000
 27 Li    0.00000    0.00000    0.00000

System changes: positions

[...]

Density initialized from wave functions
     .-------------------------Li
    /|                O        |
   Li|   O      O  P           |
  /  |P           LiOMn      O |
 *   | O    O           Mn     |
 |   | O        Li       O     |
 |   .--Mn----------O----O-----.
 | O/      MO             P   /
 | /         P  O      O     /
 |/       O                 /

[...]

Gap: 3.775 eV
Transition (v -> c):
  (s=1, k=1, n=89, [0.08, -0.42, -0.12]) -> (s=0, k=14, n=90, [0.08, 0.08, 0.12])

[...]

Density initialized from wave functions
     .-------------------------Li
    /|                O        |
   Li|   O      O  P           |
  /  |P           LiOMn      O |
 *   | O    O           Mn     |
 |   | O        Li       O     |
 |   .--Mn----------O----O-----.
 | O/      MO             P   /
 | /      O  P  O      O     /

[...]

Density initialized from wave functions
     .-------------------------Li
    /|                O        |
   Li|   O      O  P           |
  /  |P           LiOMn      O |
 *   | O    O           Mn     |
 |   | O        Li       O     |
 |   .--Mn----------O----O-----.
 | O/      MO             P   /
 | /      O  P  O      O     /

[...]

Density initialized from wave functions
     .-------------------------Li
    /|                O        |
   Li|   O      O  P           |
  /  |P           LiOMn      O |
 *   | O    O           Mn     |
 |   | O        Li       O     |
 |   .--Mn----------O----------.
 | O/      MO            OP   /
 | /         P  O      O     /
 |/       O                 /

[...]

Density initialized from wave functions
     .-------------------------Li
    /|                O        |
   Li|   O      O  P           |
  /  |P           LiOMn      O |
 *   | O    O           Mn     |
 |   | O        Li       O     |
 |   .--Mn----------O----------.
 | O/      MO            OP   /
 | /         P  O      O     /
 |/       O                 /

[...]

Density initialized from wave functions
     .-------------------------Li
   Li|   O      O  P  O        |
  /  |P           LiOMn      O |
 *   | O    O           Mn     |
 |   | O        Li       O     |
 |   .--Mn----------O----O-----.
 | O/      MO             P   /
 | /         P  O      O     /
 |/       O                 /

[...]

Density initialized from wave functions
     .-------------------------Li
   Li|   O      O  P  O        |
  /  |P           LiOMn      O |
 *   | O    O           Mn     |
 |   | O        Li       O     |
 |   .--Mn----------O----O-----.
 | O/      MO             P   /
 | /         P  O      O     /
 |/       O                 /

[...]

Density initialized from wave functions
     .-------------------------Li
    /|                O        |
   Li|   O      O  P           |
  /  |PO          LiOMn      O |
 *   |      O           Mn     |
 |   | O        Li       O     |
 |   .--Mn----------O----O-----.
 | O/      MO             P   /
 | /         P  O      O     /
 |/       O                 /

[...]

Density initialized from wave functions
     .-------------------------Li
    /|                O        |
   Li|   O      O  P           |
  /  |PO          LiOMn      O |
 *   |      O           Mn     |
 |   | O        Li       O     |
 |   .--Mn----------O----O-----.
 | O/      MO             P   /
 | /         P  O      O     /
 |/       O                 /

[...]

Density initialized from wave functions
     .-------------------------Li
    /|                O        |
   Li|   O      O  P           |
  /  |P           LiOMn      O |
 *   | O    O           Mn     |
 |   | O        Li       O     |
 |   .--Mn----------O----O-----.
 | O/      MO             P   /
 | /            O      O     /
 |/       O  P              /

[...]

Density initialized from wave functions
     .-------------------------Li
    /|                O        |
   Li|   O      O  P           |
  /  |P           LiOMn      O |
 *   | O    O           Mn     |
 |   | O        Li       O     |
 |   .--Mn----------O----O-----.
 | O/      MO             P   /
 | /            O      O     /
 |/       O  P              /

[...]

Density initialized from wave functions
     .-------------------------Li
    /|                O        |
   Li|   O      O  P           |
  /  |            LiOMn      O |
 *   |PO    O           Mn     |
 |   | O        Li       O     |
 |   .--Mn----------O----O-----.
 | O/      MO             P   /
 | /         P  O      O     /
 |/       O                 /

[...]

Density initialized from wave functions
     .-------------------------Li
    /|                O        |
   Li|   O      O  P           |
  /  |            LiOMn      O |
 *   |PO    O           Mn     |
 |   | O        Li       O     |
 |   .--Mn----------O----O-----.
 | O/      MO             P   /
 | /         P  O      O     /
 |/       O                 /

[...]

Density initialized from wave functions
     .-------------------------Li
    /|             P  O        |
   Li|   O      O              |
  /  |P           LiOMn      O |
 *   | O    O           Mn     |
 |   | O        Li       O     |
 |   .--Mn----------O----O-----.
 | O/      MO             P   /
 | /         P  O      O     /
 |/       O                 /

[...]

Density initialized from wave functions
     .-------------------------Li
    /|             P  O        |
   Li|   O      O              |
  /  |P           LiOMn      O |
 *   | O    O           Mn     |
 |   | O        Li       O     |
 |   .--Mn----------O----O-----.
 | O/      MO             P   /
 | /         P  O      O     /
 |/       O                 /

[...]

Density initialized from wave functions
     .-------------------------Li
    /|                O        |
   Li|   O      O  P           |
  /  |P           LiOMn      O |
 *   | O    O           Mn     |
 |   | O        Li       O     |
 |   .--Mn----------O----OP----.
 | O/      MO                 /
 | /         P  O      O     /
 |/       O                 /

[...]

Density initialized from wave functions
     .-------------------------Li
    /|                O        |
   Li|   O      O  P           |
  /  |P           LiOMn      O |
 *   | O    O           Mn     |
 |   | O        Li       O     |
 |   .--Mn----------O----OP----.
 | O/      MO                 /
 | /         P  O      O     /
 |/       O                 /

[...]

Density initialized from wave functions
     .-------------------------Li
    /|                O        |
   Li|   O      O  P           |
  /  |P           LiOMn      O |
 *   | O    O           Mn     |
 |   |O         Li       O     |
 |   .--Mn----------O----O-----.
 | O/      MO             P   /
 | /         P  O      O     /
 |/       O                 /

[...]

Density initialized from wave functions
     .-------------------------Li
    /|                O        |
   Li|   O      O  P           |
  /  |P           LiOMn      O |
 *   | O    O           Mn     |
 |   | O        Li       O     |
 |   .--Mn---------O-----O-----.
 | O/      MO             P   /
 | /         P  O      O     /
 |/       O                 /

[...]

Density initialized from wave functions
     Li------------------------.
    /|                O        |
   Li|   O      O  P           |
  /  |P           LiOMn      O |
 *   | O    O           Mn     |
 |   | O        Li       O     |
 |   .--Mn----------O----O-----.
 | O/      MO             P   /
 | /         P  O      O     /
 |/       O                 /

[...]

Density initialized from wave functions
    /|                O        |
   Li|   O      O  P           |
  /  |P           LiOMn      O |
 *   | O    O           Mn Li  |
 |   | O        Li       O     |
 |   .--Mn----------O----O-----.
 | O/      MO             P   /
 | /         P  O      O     /
 |/       O                 /

[...]

Density initialized from wave functions
    /|                O        |
   Li|   O      O  P           |
  /  |P           LiOMn      O |
 *   | O    O           Mn     |
 |   | O        Li       O     |
 |   .--Mn----------O----O-----Li
 | O/      MO             P   /
 | /         P  O      O     /
 |/       O                 /

[...]

Converged after 29 iterations.

Dipole moment: (0.000725, 0.000272, -0.069880) |e|*Ang

Total magnetic moment: (0.000000, 0.000000, -0.000000)
Local magnetic moments:
   0 O  ( 0.000000,  0.000000,  0.001068)
   1 O  ( 0.000000,  0.000000, -0.001059)
   2 O  ( 0.000000,  0.000000, -0.001057)
   3 O  ( 0.000000,  0.000000,  0.001047)
   4 O  ( 0.000000,  0.000000, -0.001064)
   5 O  ( 0.000000,  0.000000,  0.001046)
   6 O  ( 0.000000,  0.000000,  0.001059)
   7 O  ( 0.000000,  0.000000, -0.001043)
   8 O  ( 0.000000,  0.000000,  0.019755)
   9 O  ( 0.000000,  0.000000, -0.019778)
  10 O  ( 0.000000,  0.000000, -0.019802)
  11 O  ( 0.000000,  0.000000,  0.019775)
  12 Mn ( 0.000000,  0.000000,  4.601535)
  13 Mn ( 0.000000,  0.000000, -4.601579)
  14 Mn ( 0.000000,  0.000000, -4.601516)
  15 Mn ( 0.000000,  0.000000,  4.601604)
  16 P  ( 0.000000,  0.000000,  0.001300)
  17 P  ( 0.000000,  0.000000, -0.001293)
  18 P  ( 0.000000,  0.000000, -0.001300)
  19 P  ( 0.000000,  0.000000,  0.001294)
  20 O  ( 0.000000,  0.000000,  0.018077)
  21 O  ( 0.000000,  0.000000, -0.018058)
  22 O  ( 0.000000,  0.000000, -0.018067)
  23 O  ( 0.000000,  0.000000,  0.018078)
  24 Li ( 0.000000,  0.000000,  0.000008)
  25 Li ( 0.000000,  0.000000,  0.000000)
  26 Li ( 0.000000,  0.000000, -0.000001)
  27 Li ( 0.000000,  0.000000,  0.000000)

Energy contributions relative to reference atoms: (reference = -196157.275402)

Kinetic:       +242.943629
Potential:     -215.439642
External:        +0.000000
XC:            -254.966602
Entropy (-ST):   -0.000000
Local:           +1.915140
Free energy:   -225.547475
Extrapolated:  -225.547475

Spin contamination: 9.747301 electrons
Showing only first 2 kpts
                      Up                     Down
 Kpt  Band  Eigenvalues  Occupancy  Eigenvalues  Occupancy
  0    88      3.85190    0.01389      3.85190    0.01389
  0    89      4.03495    0.01389      4.03527    0.01389
  0    90      8.63503    0.00000      8.63501    0.00000
  0    91      8.69653    0.00000      8.69715    0.00000

  1    88      3.83354    0.01389      3.83347    0.01389
  1    89      4.04322    0.01389      4.04370    0.01389
  1    90      8.47791    0.00000      8.47813    0.00000
  1    91      8.54210    0.00000      8.54206    0.00000

Fermi level: 5.31838

Gap: 3.778 eV
Transition (v -> c):
  (s=1, k=2, n=89, [0.08, -0.42, 0.12]) -> (s=0, k=14, n=90, [0.08, 0.08, 0.12])

Forces in eV/Ang:
  0 O    -0.00026   -0.00022   -0.00000
  1 O     0.00397   -0.00148   -0.00213
  2 O    -0.00019   -0.00019    0.00015
  3 O     0.00110   -0.00160   -0.00168
  4 O    -0.00012    0.00041    0.00011
  5 O     0.00378   -0.00214   -0.00193
  6 O    -0.00037    0.00045    0.00007
  7 O     0.00125   -0.00229   -0.00171
  8 O     0.00054   -0.00168   -0.00148
  9 O     0.00030   -0.00007    0.00030
 10 O     0.00048   -0.00187   -0.00155
 11 O     0.00024   -0.00003    0.00010
 12 Mn    0.00093   -0.00164    0.00387
 13 Mn    0.00058    0.00075   -0.00251
 14 Mn    0.00087   -0.00166    0.00400
 15 Mn    0.00048    0.00075   -0.00276
 16 P    -0.00019   -0.00018   -0.00086
 17 P    -0.00794    0.01103    0.02417
 18 P    -0.00021   -0.00019   -0.00083
 19 P    -0.00793    0.01125    0.02401
 20 O     0.00035    0.00018    0.00042
 21 O    -0.00213    0.00198   -0.00480
 22 O     0.00038    0.00019    0.00022
 23 O    -0.00194    0.00202   -0.00534
 24 Li    0.00701   -0.01380   -0.02714
 25 Li   -0.00025   -0.00005    0.00018
 26 Li   -0.00067    0.00007   -0.00300
 27 Li   -0.00006    0.00003    0.00016

System changes: positions

Initializing position-dependent things.

Density initialized from wave functions
     .-------------------------Li
    /|                O        |
   Li|   O      O  P           |
  /  |P           LiOMn      O |
 *   | O    O           Mn     |
 |   | O        Li       O     |
 |   .--Mn----------O----O-----.
 | O/      MO             P   /
 | /         P  O      O     /
 |/       O                 /

Positions:
   0 O      3.526148    0.292891    1.032214    ( 0.0000,  0.0000,  0.0000)
   1 O      1.704036    5.807052    3.401670    ( 0.0000,  0.0000,  0.0000)
   2 O      6.933663    3.342276    3.707680    ( 0.0000,  0.0000,  0.0000)
   3 O      8.756153    2.757667    1.338223    ( 0.0000,  0.0000,  0.0000)
   4 O      6.933852    5.807109    3.707786    ( 0.0000,  0.0000,  0.0000)
   5 O      8.755964    0.292948    1.338330    ( 0.0000,  0.0000,  0.0000)
   6 O      3.526337    2.757724    1.032320    ( 0.0000,  0.0000,  0.0000)
   7 O      1.703847    3.342333    3.401777    ( 0.0000,  0.0000,  0.0000)
   8 O      0.466754    1.525174    1.387562    ( 0.0000,  0.0000,  0.0000)
   9 O      4.763127    4.574826    3.756983    ( 0.0000,  0.0000,  0.0000)
  10 O      9.993246    4.574826    3.352438    ( 0.0000,  0.0000,  0.0000)
  11 O      5.696873    1.525174    0.983017    ( 0.0000,  0.0000,  0.0000)
  12 Mn     2.299237    1.524885    2.474309    ( 0.0000,  0.0000,  1.0000)
  13 Mn     2.930893    4.575115    0.104091    ( 0.0000,  0.0000, -1.0000)
  14 Mn     8.160763    4.575115    2.265691    ( 0.0000,  0.0000, -1.0000)
  15 Mn     7.529107    1.524885    4.635909    ( 0.0000,  0.0000,  1.0000)
  16 P      4.259254    1.525289    0.399241    ( 0.0000,  0.0000,  0.0000)
  17 P      0.970863    4.574711    2.768742    ( 0.0000,  0.0000,  0.0000)
  18 P      6.200746    4.574711    4.340759    ( 0.0000,  0.0000,  0.0000)
  19 P      9.489137    1.525289    1.971258    ( 0.0000,  0.0000,  0.0000)
  20 O      4.219472    1.525281    3.603789    ( 0.0000,  0.0000,  0.0000)
  21 O      1.010604    4.574718    1.233252    ( 0.0000,  0.0000,  0.0000)
  22 O      6.240528    4.574719    1.136211    ( 0.0000,  0.0000,  0.0000)
  23 O      9.449396    1.525282    3.506748    ( 0.0000,  0.0000,  0.0000)
  24 Li    -0.000000   -0.000000   -0.000000    ( 0.0000,  0.0000,  0.0000)
  25 Li     5.220000   -0.000000    2.370000    ( 0.0000,  0.0000,  0.0000)
  26 Li     0.000000    3.050000   -0.000000    ( 0.0000,  0.0000,  0.0000)
  27 Li     5.230000    3.050000    2.370000    ( 0.0000,  0.0000,  0.0000)

Unit cell:
           periodic     x           y           z      points  spacing
  1. axis:    yes   10.460000    0.000000    0.000000    60     0.1743
  2. axis:    yes    0.000000    6.100000    0.000000    35     0.1743
  3. axis:    yes    0.000000    0.000000    4.740000    27     0.1756

  Lengths:  10.460000   6.100000   4.740000
  Angles:   90.000000  90.000000  90.000000

Effective grid spacing dv^(1/3) = 0.1747

                     log10-error:           total        iterations:
           time      wfs    density  force  energy       poisson  magmom
iter:   1  08:34:01  -4.21                -225.547554             +0.0001
iter:   2  08:34:26  -5.36  -3.80         -225.547565             +0.0000
iter:   3  08:34:50  -5.54  -3.82         -225.547520             +0.0000
iter:   4  08:35:15  -6.32  -4.27         -225.547521             +0.0000
iter:   5  08:35:40  -5.92  -4.30         -225.547534             +0.0000
iter:   6  08:36:05  -6.16  -4.13         -225.547515             +0.0000