User:   madkru@g064.nifl.fysik.dtu.dk
Date:   Sun Mar 21 17:57:25 2021
Arch:   x86_64
Pid:    60512
Python: 3.7.4
gpaw:   /home/niflheim/madkru/venv_folder/gpaw/gpaw (d0d1ca1c71)
_gpaw:  /home/niflheim/madkru/venv_folder/gpaw/build/lib.linux-x86_64-sandybridge-3.7/
        _gpaw.cpython-37m-x86_64-linux-gnu.so (4fd39e8b1e)
ase:    /home/niflheim/madkru/venv_folder/ase/ase (version 3.21.0b1-7e6c206a91)
numpy:  /home/niflheim/madkru/venv_folder/lib/python3.7/site-packages/numpy (version 1.19.4)
scipy:  /home/niflheim/madkru/venv_folder/lib/python3.7/site-packages/scipy (version 1.5.4)
units:  Angstrom and eV
cores: 32
OMP_NUM_THREADS: 1

Input parameters:
  convergence: {bands: occupied,
                density: 0.0001,
                eigenstates: 4e-08,
                energy: 0.0005,
                forces: 1e-06}
  kpts: [6 6 4]
  mode: {ecut: 600.0,
         gammacentered: False,
         name: pw}
  occupations: {fixmagmom: False,
                name: fermi-dirac,
                width: 0.001}
  symmetry: {point_group: False,
             time_reversal: False}

System changes: positions, numbers, cell, pbc, initial_charges, initial_magmoms

Initialize ...

O-setup:
  name: Oxygen
  id: 9b9d51c344dea68c822856295a461509
  Z: 8.0
  valence: 6
  core: 2
  charge: 0.0
  file: /home/modules/software/GPAW-setups/0.9.20000/O.LDA.gz
  compensation charges: gauss, rc=0.21, lmax=2
  cutoffs: 1.17(filt), 0.83(core),
  valence states:
                energy  radius
    2s(2.00)   -23.752   0.688
    2p(4.00)    -9.195   0.598
    *s           3.459   0.688
    *p          18.016   0.598
    *d           0.000   0.619

  Using partial waves for O as LCAO basis

Mn-setup:
  name: Manganese
  id: 0d715a8018be061a6e9ea6f2d364ac92
  Z: 25.0
  valence: 15
  core: 10
  charge: 0.0
  file: /home/modules/software/GPAW-setups/0.9.20000/Mn.LDA.gz
  compensation charges: gauss, rc=0.38, lmax=2
  cutoffs: 2.14(filt), 0.86(core),
  valence states:
                energy  radius
    3s(2.00)   -85.387   1.275
    4s(2.00)    -5.282   1.275
    3p(6.00)   -54.493   1.281
    4p(0.00)    -1.471   1.281
    3d(5.00)    -7.009   1.138
    *d          20.203   1.138

[...]

P-setup:
  name: Phosphorus
  id: a5561c299094968922a179ab894d2e2d
  Z: 15.0
  valence: 5
  core: 10
  charge: 0.0
  file: /home/modules/software/GPAW-setups/0.9.20000/P.LDA.gz
  compensation charges: gauss, rc=0.30, lmax=2
  cutoffs: 1.69(filt), 1.81(core),
  valence states:
                energy  radius
    3s(2.00)   -14.015   0.953
    3p(3.00)    -5.596   0.953
    *s          13.197   0.953
    *p          21.615   0.953
    *d           0.000   0.953

[...]

Li-setup:
  name: Lithium
  id: b73562207f97a71b6967473b66fe8b65
  Z: 3.0
  valence: 1
  core: 2
  charge: 0.0
  file: /home/modules/software/GPAW-setups/0.9.20000/Li.LDA.gz
  compensation charges: gauss, rc=0.33, lmax=2
  cutoffs: 1.91(filt), 2.55(core),
  valence states:
                energy  radius
    2s(1.00)    -2.874   1.058
    2p(0.00)    -1.126   1.058
    *s          24.338   1.058

  Using partial waves for Li as LCAO basis

Reference energy: -196157.275402

Spin-polarized calculation.
Magnetic moment: 0.000000

Convergence criteria:
  Maximum total energy change: 0.0005 eV / electron
  Maximum integral of absolute density change: 0.0001 electrons
  Maximum integral of absolute eigenstate change: 4e-08 eV^2
  Maximum change in atomic force: 1e-06 eV / Ang
  Maximum number of iterations: 333

Symmetries present (total): 1

  ( 1  0  0)
  ( 0  1  0)
  ( 0  0  1)

144 k-points: 6 x 6 x 4 Monkhorst-Pack grid
144 k-points in the irreducible part of the Brillouin zone
       k-points in crystal coordinates                weights
   0:    -0.41666667   -0.41666667   -0.37500000          1/144
   1:    -0.41666667   -0.41666667   -0.12500000          1/144
   2:    -0.41666667   -0.41666667    0.12500000          1/144
   3:    -0.41666667   -0.41666667    0.37500000          1/144
   4:    -0.41666667   -0.25000000   -0.37500000          1/144
   5:    -0.41666667   -0.25000000   -0.12500000          1/144
   6:    -0.41666667   -0.25000000    0.12500000          1/144
   7:    -0.41666667   -0.25000000    0.37500000          1/144
   8:    -0.41666667   -0.08333333   -0.37500000          1/144
   9:    -0.41666667   -0.08333333   -0.12500000          1/144
          ...
 143:     0.41666667    0.41666667    0.37500000          1/144

Wave functions: Plane wave expansion
  Cutoff energy: 600.000 eV
  Number of coefficients (min, max): 10068, 10125
  Pulay-stress correction: 0.000000 eV/Ang^3 (de/decut=0.000000)
  Using FFTW library
  ScaLapack parameters: grid=1x1, blocksize=None
  Wavefunction extrapolation:
    Improved wavefunction reuse through dual PAW basis

  Fermi-Dirac: width=0.0010 eV

Eigensolver
   Davidson(niter=2, smin=None, normalize=True)

Densities:
  Coarse grid: 60*35*27 grid
  Fine grid: 120*70*54 grid
  Total Charge: 0.000000

Density mixing:
  Method: difference
  Backend: pulay
  Linear mixing parameter: 0.05
  Mixing with 5 old densities
  Damping of long wave oscillations: 50

Hamiltonian:
  XC and Coulomb potentials evaluated on a 120*70*54 grid
  Using the LDA Exchange-Correlation functional

Total number of cores used: 32
Parallelization over k-points: 16
Domain decomposition: 2 x 1 x 1

Number of atoms: 28
Number of atomic orbitals: 148
Number of bands in calculation: 112
Number of valence electrons: 180
Bands to converge: occupied

... initialized

Initializing position-dependent things.

Density initialized from atomic densities
Creating initial wave functions:
  112 bands from LCAO basis set

    /|         OP              |
   / |O            O        O  |
  /  |       O            O  P |
 *   |O    Mn      O           |
 |   |          OLi          O |
 |   .P-O--------------Mn------.
 |  /          Li    O  Mn  O /
 | /Li O           PO        /
 |/       Mn                /
 *Li-----------------------*

Positions:
   0 O     -1.360678   -2.541161   -1.202221    ( 0.0000,  0.0000,  0.0000)
   1 O     -3.121941    2.976855    1.167242    ( 0.0000,  0.0000,  0.0000)
   2 O      2.107533    0.508090    1.530712    ( 0.0000,  0.0000,  0.0000)
   3 O      3.869373   -0.072395   -0.828750    ( 0.0000,  0.0000,  0.0000)
   4 O      2.107821    2.976875    1.540792    ( 0.0000,  0.0000,  0.0000)
   5 O      3.869084   -2.541141   -0.828671    ( 0.0000,  0.0000,  0.0000)
   6 O     -1.360390   -0.072375   -1.202141    ( 0.0000,  0.0000,  0.0000)
   7 O     -3.122230    0.508109    1.167321    ( 0.0000,  0.0000,  0.0000)
   8 O     -4.413461   -1.306992   -0.794251    ( 0.0000,  0.0000,  0.0000)
   9 O     -0.069585    1.742707    1.575662    ( 0.0000,  0.0000,  0.0000)
  10 O      5.160604    1.742707    1.132822    ( 0.0000,  0.0000,  0.0000)
  11 O      0.816728   -1.306992   -1.237091    ( 0.0000,  0.0000,  0.0000)
  12 Mn    -2.570809   -1.307302    0.247161    ( 0.0000,  0.0000,  1.0000)
  13 Mn    -1.912021    1.743016   -2.122906    ( 0.0000,  0.0000, -1.0000)
  14 Mn     3.317952    1.743017    0.091411    ( 0.0000,  0.0000, -1.0000)
  15 Mn     2.659164   -1.307302    2.461478    ( 0.0000,  0.0000,  1.0000)
  16 P     -0.620664   -1.306816   -1.828465    ( 0.0000,  0.0000,  0.0000)
  17 P     -3.862097    1.742530    0.541238    ( 0.0000,  0.0000,  0.0000)
  18 P      1.367807    1.742530    2.167036    ( 0.0000,  0.0000,  0.0000)
  19 P      4.609240   -1.306816   -0.202666    ( 0.0000,  0.0000,  0.0000)
  20 O     -0.646437   -1.306845    1.374751    ( 0.0000,  0.0000,  0.0000)
  21 O     -3.836504    1.742559   -0.995565    ( 0.0000,  0.0000,  0.0000)
  22 O      1.393580    1.742559   -1.036179    ( 0.0000,  0.0000,  0.0000)
  23 O      4.583647   -1.306845    1.334136    ( 0.0000,  0.0000,  0.0000)
  24 Li    -4.856429   -2.832143   -2.200714    ( 0.0000,  0.0000,  0.0000)
  25 Li     0.373571   -2.832143    0.169286    ( 0.0000,  0.0000,  0.0000)
  26 Li    -4.856429    0.217857   -2.200714    ( 0.0000,  0.0000,  0.0000)
  27 Li     0.373571    0.217857    0.169286    ( 0.0000,  0.0000,  0.0000)

Unit cell:
           periodic     x           y           z      points  spacing
  1. axis:    yes   10.460000    0.000000    0.000000    60     0.1743
  2. axis:    yes    0.000000    6.100000    0.000000    35     0.1743
  3. axis:    yes    0.000000    0.000000    4.740000    27     0.1756

  Lengths:  10.460000   6.100000   4.740000
  Angles:   90.000000  90.000000  90.000000

Effective grid spacing dv^(1/3) = 0.1747

                     log10-error:           total        iterations:
           time      wfs    density  force  energy       poisson  magmom
iter:   1  18:00:24                       -231.921504             +0.0000
iter:   2  18:01:03  -0.55  -0.94         -231.723410             +0.0051
iter:   3  18:01:43  -0.72  -0.98         -220.581033             +0.0064
iter:   4  18:02:22  -0.95  -1.20         -218.859677             +0.0021
iter:   5  18:03:02  -1.93  -1.36         -222.097068             +0.0014
iter:   6  18:03:41  -1.99  -1.44         -221.026019             +0.0006
iter:   7  18:04:21  -2.25  -1.68         -224.136372             +0.0004
iter:   8  18:05:00  -1.59  -1.89         -226.181328             +0.0000
iter:   9  18:05:39  -2.79  -1.90         -227.046942             +0.0000
iter:  10  18:06:19  -1.75  -1.86         -226.564724             +0.0000
iter:  11  18:06:58  -2.51  -2.05         -226.562913             +0.0000
iter:  12  18:07:37  -1.58  -2.09         -226.892323             -0.0000
iter:  13  18:08:17  -1.97  -2.22         -226.238858             +0.0000
iter:  14  18:08:56  -3.00  -2.59         -226.247922             +0.0000
iter:  15  18:09:35  -2.50  -2.54         -226.283102             +0.0000
iter:  16  18:10:15  -2.56  -2.61         -226.252733             +0.0000
iter:  17  18:10:54  -3.77  -2.95         -226.231371             +0.0000
iter:  18  18:11:34  -4.13  -3.21         -226.229386             -0.0000
iter:  19  18:12:13  -4.38  -3.27         -226.228702             -0.0000
iter:  20  18:12:52  -5.48  -3.43         -226.228279             -0.0000
iter:  21  18:13:32  -5.10  -3.46         -226.227653             +0.0000
iter:  22  18:14:11  -4.84  -3.59         -226.227869             +0.0000
iter:  23  18:14:50  -5.60  -3.73         -226.227493             +0.0000
iter:  24  18:15:30  -6.20  -3.79         -226.227476             +0.0000
iter:  25  18:16:09  -5.95  -3.81         -226.227536             +0.0000
iter:  26  18:16:48  -6.23  -3.93         -226.227527             +0.0000
iter:  27  18:17:28  -5.89  -4.03         -226.227464             +0.0000
iter:  28  18:18:07  -6.91  -4.39         -226.227458             +0.0000
iter:  29  18:18:47  -6.88  -4.47         -226.227451             -0.0000
iter:  30  18:19:26  -7.13  -4.59         -226.227448             -0.0000
iter:  31  18:20:16  -8.27  -4.71         -226.227448             -0.0000
iter:  32  18:21:06  -7.81  -4.79    -2.54-226.227448             -0.0000
iter:  33  18:21:56  -8.06  -5.07    -3.07-226.227448             -0.0000
iter:  34  18:22:46  -8.28  -5.21    -3.01-226.227448             -0.0000
iter:  35  18:23:36  -9.44  -5.19    -3.65-226.227448             -0.0000
iter:  36  18:24:26  -8.40  -5.23    -2.93-226.227448             +0.0000
iter:  37  18:25:16  -8.72  -5.55    -3.01-226.227447             +0.0000
iter:  38  18:26:06  -9.74  -5.69    -3.50-226.227447             +0.0000
iter:  39  18:26:56 -10.08  -5.82    -3.95-226.227447             +0.0000
iter:  40  18:27:46  -9.49  -5.86    -3.65-226.227447             +0.0000
iter:  41  18:28:36 -10.23  -5.91    -3.74-226.227447             +0.0000
iter:  42  18:29:26 -11.26  -6.03    -4.72-226.227447             +0.0000
iter:  43  18:30:16 -10.42  -6.07    -4.10-226.227447             +0.0000
iter:  44  18:31:06 -10.19  -6.17    -3.84-226.227447             +0.0000
iter:  45  18:31:56 -11.00  -6.23    -4.08-226.227447             +0.0000
iter:  46  18:32:46 -11.02  -6.37    -4.28-226.227447             +0.0000
iter:  47  18:33:36 -11.20  -6.41    -4.13-226.227447             +0.0000
iter:  48  18:34:26 -11.60  -6.84    -4.53-226.227447             +0.0000
iter:  49  18:35:16 -12.96  -7.02    -5.53-226.227447             +0.0000
iter:  50  18:36:06 -11.74  -7.04    -4.75-226.227447             +0.0000
iter:  51  18:36:56 -12.42  -7.07    -4.86-226.227447             +0.0000
iter:  52  18:37:46 -12.61  -7.20    -5.04-226.227447             +0.0000
iter:  53  18:38:36 -13.10  -7.22    -5.16-226.227447             -0.0000
iter:  54  18:39:26 -13.28  -7.35    -5.28-226.227447             +0.0000
iter:  55  18:40:16 -13.12  -7.62    -5.53-226.227447             -0.0000
iter:  56  18:41:06 -14.20  -7.72    -5.98-226.227447             -0.0000
iter:  57  18:41:56 -13.26  -7.77    -5.52-226.227447             +0.0000
iter:  58  18:42:46 -13.88  -7.94    -5.87-226.227447             +0.0000
iter:  59  18:43:36 -14.67  -7.99    -6.01-226.227447             +0.0000

Converged after 59 iterations.

Dipole moment: (10.670637, 1.410365, -6.265142) |e|*Ang

Total magnetic moment: (0.000000, 0.000000, 0.000000)
Local magnetic moments:
   0 O  ( 0.000000,  0.000000, -0.000531)
   1 O  ( 0.000000,  0.000000,  0.000526)
   2 O  ( 0.000000,  0.000000,  0.000255)
   3 O  ( 0.000000,  0.000000, -0.000598)
   4 O  ( 0.000000,  0.000000,  0.000512)
   5 O  ( 0.000000,  0.000000, -0.000402)
   6 O  ( 0.000000,  0.000000, -0.000549)
   7 O  ( 0.000000,  0.000000,  0.000550)
   8 O  ( 0.000000,  0.000000,  0.028700)
   9 O  ( 0.000000,  0.000000, -0.028780)
  10 O  ( 0.000000,  0.000000, -0.028703)
  11 O  ( 0.000000,  0.000000,  0.028649)
  12 Mn ( 0.000000,  0.000000,  4.448153)
  13 Mn ( 0.000000,  0.000000, -4.448248)
  14 Mn ( 0.000000,  0.000000, -4.447720)
  15 Mn ( 0.000000,  0.000000,  4.448574)
  16 P  ( 0.000000,  0.000000,  0.001550)
  17 P  ( 0.000000,  0.000000, -0.001555)
  18 P  ( 0.000000,  0.000000, -0.001727)
  19 P  ( 0.000000,  0.000000,  0.001537)
  20 O  ( 0.000000,  0.000000,  0.025307)
  21 O  ( 0.000000,  0.000000, -0.025309)
  22 O  ( 0.000000,  0.000000, -0.025294)
  23 O  ( 0.000000,  0.000000,  0.025291)
  24 Li ( 0.000000,  0.000000, -0.000001)
  25 Li ( 0.000000,  0.000000, -0.000000)
  26 Li ( 0.000000,  0.000000,  0.000001)
  27 Li ( 0.000000,  0.000000, -0.000006)

Energy contributions relative to reference atoms: (reference = -196157.275402)

Kinetic:       +217.106501
Potential:     -195.049557
External:        +0.000000
XC:            -250.326376
Entropy (-ST):   -0.000000
Local:           +2.041985
Free energy:   -226.227447
Extrapolated:  -226.227447

Spin contamination: 9.560284 electrons
Showing only first 2 kpts
                      Up                     Down
 Kpt  Band  Eigenvalues  Occupancy  Eigenvalues  Occupancy
  0    88      5.10805    0.00694      5.11168    0.00694
  0    89      5.13310    0.00694      5.13702    0.00694
  0    90      7.29094    0.00000      7.28887    0.00000
  0    91      7.30905    0.00000      7.30649    0.00000

  1    88      5.13406    0.00694      5.13735    0.00694
  1    89      5.16367    0.00694      5.16787    0.00694
  1    90      7.23318    0.00000      7.23157    0.00000
  1    91      7.24613    0.00000      7.24381    0.00000

Fermi level: 6.46855

Gap: 1.970 eV
Transition (v -> c):
  (s=1, k=69, n=89, [-0.08, 0.42, -0.12]) -> (s=1, k=57, n=90, [-0.08, -0.08, -0.12])
Writing to born-0.01-2z-.gpw (mode='all')