User:   madkru@i009.nifl.fysik.dtu.dk
Date:   Thu Apr  1 21:08:26 2021
Arch:   x86_64
Pid:    31381
Python: 3.8.6
gpaw:   /home/niflheim/madkru/venv_madkru/gpaw/gpaw (e6f0d78a31)
_gpaw:  /home/niflheim/madkru/venv_madkru/gpaw/build/lib.linux-x86_64-ivybridge-3.8/
        _gpaw.cpython-38-x86_64-linux-gnu.so (e6f0d78a31)
ase:    /home/niflheim/madkru/venv_madkru/ase/ase (version 3.22.0b1-4d5a73cb29)
numpy:  /home/modules/software/SciPy-bundle/2020.11-foss-2020b/lib/python3.8/site-packages/numpy (version 1.19.4)
scipy:  /home/modules/software/SciPy-bundle/2020.11-foss-2020b/lib/python3.8/site-packages/scipy (version 1.5.4)
units:  Angstrom and eV
cores: 64
OpenMP: False
OMP_NUM_THREADS: 1

Input parameters:
  convergence: {bands: occupied,
                density: 0.0001,
                eigenstates: 4e-08,
                energy: 0.0005,
                forces: 1e-06}
  kpts: [6 6 4]
  maxiter: 1000
  mode: {ecut: 600.0,
         gammacentered: False,
         name: pw}
  occupations: {fixmagmom: False,
                name: fermi-dirac,
                width: 0.001}
  symmetry: {point_group: False,
             time_reversal: False}

System changes: positions, numbers, cell, pbc, initial_charges, initial_magmoms

Initialize ...

O-setup:
  name: Oxygen
  id: 9b9d51c344dea68c822856295a461509
  Z: 8.0
  valence: 6
  core: 2
  charge: 0.0
  file: /home/modules/software/GPAW-setups/0.9.20000/O.LDA.gz
  compensation charges: gauss, rc=0.21, lmax=2
  cutoffs: 1.17(filt), 0.83(core),
  valence states:
                energy  radius
    2s(2.00)   -23.752   0.688
    2p(4.00)    -9.195   0.598
    *s           3.459   0.688
    *p          18.016   0.598
    *d           0.000   0.619

  Using partial waves for O as LCAO basis

Mn-setup:
  name: Manganese
  id: 0d715a8018be061a6e9ea6f2d364ac92
  Z: 25.0
  valence: 15
  core: 10
  charge: 0.0
  file: /home/modules/software/GPAW-setups/0.9.20000/Mn.LDA.gz
  compensation charges: gauss, rc=0.38, lmax=2
  cutoffs: 2.14(filt), 0.86(core),
  valence states:
                energy  radius
    3s(2.00)   -85.387   1.275
    4s(2.00)    -5.282   1.275
    3p(6.00)   -54.493   1.281
    4p(0.00)    -1.471   1.281
    3d(5.00)    -7.009   1.138
    *d          20.203   1.138

[...]

P-setup:
  name: Phosphorus
  id: a5561c299094968922a179ab894d2e2d
  Z: 15.0
  valence: 5
  core: 10
  charge: 0.0
  file: /home/modules/software/GPAW-setups/0.9.20000/P.LDA.gz
  compensation charges: gauss, rc=0.30, lmax=2
  cutoffs: 1.69(filt), 1.81(core),
  valence states:
                energy  radius
    3s(2.00)   -14.015   0.953
    3p(3.00)    -5.596   0.953
    *s          13.197   0.953
    *p          21.615   0.953
    *d           0.000   0.953

[...]

Li-setup:
  name: Lithium
  id: b73562207f97a71b6967473b66fe8b65
  Z: 3.0
  valence: 1
  core: 2
  charge: 0.0
  file: /home/modules/software/GPAW-setups/0.9.20000/Li.LDA.gz
  compensation charges: gauss, rc=0.33, lmax=2
  cutoffs: 1.91(filt), 2.55(core),
  valence states:
                energy  radius
    2s(1.00)    -2.874   1.058
    2p(0.00)    -1.126   1.058
    *s          24.338   1.058

  Using partial waves for Li as LCAO basis

Reference energy: -196157.275402

Spin-polarized calculation.
Magnetic moment: 0.000000

Convergence criteria:
  Maximum total energy change: 0.0005 eV / electron
  Maximum integral of absolute density change: 0.0001 electrons
  Maximum integral of absolute eigenstate change: 4e-08 eV^2
  Maximum change in atomic force: 1e-06 eV / Ang
  Maximum number of iterations: 1000

Symmetries present (total): 1

  ( 1  0  0)
  ( 0  1  0)
  ( 0  0  1)

144 k-points: 6 x 6 x 4 Monkhorst-Pack grid
144 k-points in the irreducible part of the Brillouin zone
       k-points in crystal coordinates                weights
   0:    -0.41666667   -0.41666667   -0.37500000          1/144
   1:    -0.41666667   -0.41666667   -0.12500000          1/144
   2:    -0.41666667   -0.41666667    0.12500000          1/144
   3:    -0.41666667   -0.41666667    0.37500000          1/144
   4:    -0.41666667   -0.25000000   -0.37500000          1/144
   5:    -0.41666667   -0.25000000   -0.12500000          1/144
   6:    -0.41666667   -0.25000000    0.12500000          1/144
   7:    -0.41666667   -0.25000000    0.37500000          1/144
   8:    -0.41666667   -0.08333333   -0.37500000          1/144
   9:    -0.41666667   -0.08333333   -0.12500000          1/144
          ...
 143:     0.41666667    0.41666667    0.37500000          1/144

Wave functions: Plane wave expansion
  Cutoff energy: 600.000 eV
  Number of coefficients (min, max): 10068, 10125
  Pulay-stress correction: 0.000000 eV/Ang^3 (de/decut=0.000000)
  Using FFTW library
  ScaLapack parameters: grid=1x1, blocksize=None
  Wavefunction extrapolation:
    Improved wavefunction reuse through dual PAW basis

  Fermi-Dirac: width=0.0010 eV

Eigensolver
   Davidson(niter=2)

Densities:
  Coarse grid: 60*35*27 grid
  Fine grid: 120*70*54 grid
  Total Charge: 0.000000

Density mixing:
  Method: difference
  Backend: pulay
  Linear mixing parameter: 0.05
  Mixing with 5 old densities
  Damping of long wave oscillations: 50

Hamiltonian:
  XC and Coulomb potentials evaluated on a 120*70*54 grid
  Using the LDA Exchange-Correlation functional

Total number of cores used: 64
Parallelization over k-points: 16
Domain decomposition: 2 x 2 x 1

Number of atoms: 28
Number of atomic orbitals: 148
Number of bands in calculation: 112
Number of valence electrons: 180
Bands to converge: occupied

... initialized

Initializing position-dependent things.

Density initialized from atomic densities
Creating initial wave functions:
  112 bands from LCAO basis set

    /|         OP              |
   / |O            O        O  |
  /  |       O            O  P |
 *   |O    Mn      O           |
 |   |          OLi          O |
 |   .P-O--------------Mn------.
 |  /          Li    O  Mn  O /
 | /Li O           PO        /
 |/       Mn                /
 *Li-----------------------*

Positions:
   0 O     -1.360678   -2.541161   -1.202221    ( 0.0000,  0.0000,  0.0000)
   1 O     -3.121941    2.976855    1.167242    ( 0.0000,  0.0000,  0.0000)
   2 O      2.107533    0.508090    1.540712    ( 0.0000,  0.0000,  0.0000)
   3 O      3.869373   -0.072395   -0.828750    ( 0.0000,  0.0000,  0.0000)
   4 O      2.107821    2.976875    1.540792    ( 0.0000,  0.0000,  0.0000)
   5 O      3.869084   -2.541141   -0.828671    ( 0.0000,  0.0000,  0.0000)
   6 O     -1.360390   -0.072375   -1.202141    ( 0.0000,  0.0000,  0.0000)
   7 O     -3.122230    0.508109    1.167321    ( 0.0000,  0.0000,  0.0000)
   8 O     -4.413461   -1.306992   -0.794251    ( 0.0000,  0.0000,  0.0000)
   9 O     -0.069585    1.742707    1.575662    ( 0.0000,  0.0000,  0.0000)
  10 O      5.160604    1.742707    1.132822    ( 0.0000,  0.0000,  0.0000)
  11 O      0.816728   -1.306992   -1.237091    ( 0.0000,  0.0000,  0.0000)
  12 Mn    -2.570809   -1.307302    0.247161    ( 0.0000,  0.0000,  1.0000)
  13 Mn    -1.912021    1.743016   -2.122906    ( 0.0000,  0.0000, -1.0000)
  14 Mn     3.317952    1.743017    0.091411    ( 0.0000,  0.0000, -1.0000)
  15 Mn     2.659164   -1.307302    2.461478    ( 0.0000,  0.0000,  1.0000)
  16 P     -0.620664   -1.306816   -1.828465    ( 0.0000,  0.0000,  0.0000)
  17 P     -3.862097    1.742530    0.541238    ( 0.0000,  0.0000,  0.0000)
  18 P      1.367807    1.742530    2.167036    ( 0.0000,  0.0000,  0.0000)
  19 P      4.609240   -1.306816   -0.202666    ( 0.0000,  0.0000,  0.0000)
  20 O     -0.646437   -1.306845    1.374751    ( 0.0000,  0.0000,  0.0000)
  21 O     -3.836504    1.742559   -0.995565    ( 0.0000,  0.0000,  0.0000)
  22 O      1.393580    1.742559   -1.046179    ( 0.0000,  0.0000,  0.0000)
  23 O      4.583647   -1.306845    1.334136    ( 0.0000,  0.0000,  0.0000)
  24 Li    -4.856429   -2.832143   -2.200714    ( 0.0000,  0.0000,  0.0000)
  25 Li     0.373571   -2.832143    0.169286    ( 0.0000,  0.0000,  0.0000)
  26 Li    -4.856429    0.217857   -2.200714    ( 0.0000,  0.0000,  0.0000)
  27 Li     0.373571    0.217857    0.169286    ( 0.0000,  0.0000,  0.0000)

Unit cell:
           periodic     x           y           z      points  spacing
  1. axis:    yes   10.460000    0.000000    0.000000    60     0.1743
  2. axis:    yes    0.000000    6.100000    0.000000    35     0.1743
  3. axis:    yes    0.000000    0.000000    4.740000    27     0.1756

  Lengths:  10.460000   6.100000   4.740000
  Angles:   90.000000  90.000000  90.000000

Effective grid spacing dv^(1/3) = 0.1747

                     log10-error:           total        iterations:
           time      wfs    density  force  energy       poisson  magmom
iter:   1  21:09:56                       -231.913464             +0.0000
iter:   2  21:10:16  -0.55  -0.94         -231.737164             +0.0058
iter:   3  21:10:37  -0.72  -0.98         -220.574027             +0.0073
iter:   4  21:10:58  -0.96  -1.20         -218.847066             +0.0024
iter:   5  21:11:19  -1.91  -1.36         -221.480083             +0.0016
iter:   6  21:11:39  -1.99  -1.49         -220.639153             +0.0008
iter:   7  21:12:00  -2.21  -1.64         -224.676272             +0.0004
iter:   8  21:12:21  -2.30  -1.88         -225.126960             +0.0002
iter:   9  21:12:42  -2.47  -1.85         -227.710846             -0.0000
iter:  10  21:13:03  -2.36  -1.78         -227.273833             -0.0000
iter:  11  21:13:23  -1.51  -1.90         -226.812498             -0.0000
iter:  12  21:13:44  -2.27  -2.33         -226.863066             -0.0000
iter:  13  21:14:05  -2.48  -2.25         -228.088771             -0.0000
iter:  14  21:14:26  -3.02  -1.88         -226.946069             -0.0000
iter:  15  21:14:47  -3.34  -2.26         -226.669299             -0.0000
iter:  16  21:15:07  -3.10  -2.37         -226.521937             -0.0000
iter:  17  21:15:28  -2.69  -2.47         -226.309641             +0.0000
iter:  18  21:15:49  -3.35  -2.61         -226.301533             -0.0000
iter:  19  21:16:10  -3.71  -2.65         -226.346174             -0.0000
iter:  20  21:16:30  -3.25  -2.73         -226.274543             -0.0000
iter:  21  21:16:51  -3.52  -3.02         -226.240369             -0.0000
iter:  22  21:17:12  -3.71  -3.06         -226.229496             -0.0000
iter:  23  21:17:32  -4.38  -3.12         -226.228088             -0.0000
iter:  24  21:17:53  -4.72  -3.15         -226.228319             -0.0000
iter:  25  21:18:14  -4.62  -3.20         -226.227074             -0.0000
iter:  26  21:18:34  -5.08  -3.25         -226.226629             -0.0000
iter:  27  21:18:55  -4.27  -3.26         -226.226630             -0.0000
iter:  28  21:19:16  -5.45  -3.68         -226.226370             -0.0000
iter:  29  21:19:36  -5.68  -3.83         -226.226052             -0.0000
iter:  30  21:19:57  -5.94  -3.91         -226.225967             -0.0000
iter:  31  21:20:18  -5.69  -3.97         -226.225912             -0.0000
iter:  32  21:20:38  -6.61  -4.04         -226.225915             -0.0000
iter:  33  21:20:59  -6.05  -4.13         -226.225899             +0.0000
iter:  34  21:21:20  -6.65  -4.37         -226.225888             -0.0000
iter:  35  21:21:46  -7.65  -4.48         -226.225889             -0.0000
iter:  36  21:22:06  -7.10  -4.53         -226.225895             +0.0000
iter:  37  21:22:27  -7.35  -4.67         -226.225889             +0.0000
iter:  38  21:22:47  -7.35  -4.74         -226.225890             +0.0000
iter:  39  21:23:08  -7.16  -4.78         -226.225886             +0.0000
iter:  40  21:23:34  -7.53  -4.87    -2.20-226.225885             +0.0000
iter:  41  21:24:00  -8.42  -5.02    -3.10-226.225885             +0.0000
iter:  42  21:24:26  -8.26  -5.09    -2.85-226.225885             +0.0000
iter:  43  21:24:51  -8.54  -5.22    -2.90-226.225885             +0.0000
iter:  44  21:25:17  -8.51  -5.29    -3.09-226.225885             +0.0000
iter:  45  21:25:43  -9.35  -5.43    -3.91-226.225885             +0.0000
iter:  46  21:26:09  -8.87  -5.47    -3.33-226.225885             +0.0000
iter:  47  21:26:35  -9.40  -5.58    -3.55-226.225885             +0.0000
iter:  48  21:27:01  -9.06  -5.65    -3.31-226.225885             +0.0000
iter:  49  21:27:27 -10.53  -5.70    -4.02-226.225885             +0.0000
iter:  50  21:27:53  -9.38  -5.74    -3.47-226.225885             +0.0000
iter:  51  21:28:19  -9.60  -5.90    -3.51-226.225885             +0.0000
iter:  52  21:28:45  -9.71  -5.98    -3.64-226.225885             +0.0000
iter:  53  21:29:10 -10.13  -6.06    -4.01-226.225885             +0.0000
iter:  54  21:29:36 -10.31  -6.17    -3.99-226.225885             +0.0000
iter:  55  21:30:02 -11.47  -6.22    -4.61-226.225885             +0.0000
iter:  56  21:30:28 -11.11  -6.27    -4.06-226.225885             +0.0000
iter:  57  21:30:54 -11.55  -6.60    -4.61-226.225885             +0.0000
iter:  58  21:31:20 -11.48  -6.66    -4.47-226.225885             +0.0000
iter:  59  21:31:46 -12.13  -6.81    -5.10-226.225885             +0.0000
iter:  60  21:32:12 -11.62  -6.85    -4.43-226.225885             +0.0000
iter:  61  21:32:38 -12.59  -7.06    -5.04-226.225885             +0.0000
iter:  62  21:33:03 -11.79  -7.11    -4.76-226.225885             +0.0000
iter:  63  21:33:29 -13.04  -7.13    -5.29-226.225885             +0.0000
iter:  64  21:33:55 -13.06  -7.17    -5.48-226.225885             +0.0000
iter:  65  21:34:21 -12.72  -7.22    -5.10-226.225885             +0.0000
iter:  66  21:34:47 -13.33  -7.42    -5.64-226.225885             +0.0000
iter:  67  21:35:13 -12.42  -7.45    -5.27-226.225885             +0.0000
iter:  68  21:35:39 -13.37  -7.55    -5.50-226.225885             +0.0000
iter:  69  21:36:04 -13.85  -7.70    -5.81-226.225885             +0.0000
iter:  70  21:36:30 -13.82  -7.78    -5.72-226.225885             +0.0000
iter:  71  21:36:56 -13.31  -7.89    -5.35-226.225885             +0.0000
iter:  72  21:37:22 -13.96  -7.95    -5.81-226.225885             +0.0000
iter:  73  21:37:48 -14.30  -8.16    -6.20-226.225885             +0.0000

Converged after 73 iterations.

Dipole moment: (10.665978, 1.411038, -6.272256) |e|*Ang

Total magnetic moment: (0.000000, 0.000000, 0.000000)
Local magnetic moments:
   0 O  ( 0.000000,  0.000000, -0.000508)
   1 O  ( 0.000000,  0.000000,  0.000535)
   2 O  ( 0.000000,  0.000000,  0.000464)
   3 O  ( 0.000000,  0.000000, -0.000537)
   4 O  ( 0.000000,  0.000000,  0.000444)
   5 O  ( 0.000000,  0.000000, -0.000517)
   6 O  ( 0.000000,  0.000000, -0.000528)
   7 O  ( 0.000000,  0.000000,  0.000555)
   8 O  ( 0.000000,  0.000000,  0.028686)
   9 O  ( 0.000000,  0.000000, -0.028689)
  10 O  ( 0.000000,  0.000000, -0.028828)
  11 O  ( 0.000000,  0.000000,  0.028707)
  12 Mn ( 0.000000,  0.000000,  4.448177)
  13 Mn ( 0.000000,  0.000000, -4.448200)
  14 Mn ( 0.000000,  0.000000, -4.448514)
  15 Mn ( 0.000000,  0.000000,  4.448186)
  16 P  ( 0.000000,  0.000000,  0.001557)
  17 P  ( 0.000000,  0.000000, -0.001544)
  18 P  ( 0.000000,  0.000000, -0.001475)
  19 P  ( 0.000000,  0.000000,  0.001569)
  20 O  ( 0.000000,  0.000000,  0.025317)
  21 O  ( 0.000000,  0.000000, -0.025293)
  22 O  ( 0.000000,  0.000000, -0.025092)
  23 O  ( 0.000000,  0.000000,  0.025299)
  24 Li ( 0.000000,  0.000000,  0.000000)
  25 Li ( 0.000000,  0.000000,  0.000011)
  26 Li ( 0.000000,  0.000000,  0.000000)
  27 Li ( 0.000000,  0.000000,  0.000011)

Energy contributions relative to reference atoms: (reference = -196157.275402)

Kinetic:       +218.095513
Potential:     -195.821385
External:        +0.000000
XC:            -250.539211
Entropy (-ST):   -0.000000
Local:           +2.039199
Free energy:   -226.225885
Extrapolated:  -226.225885

Spin contamination: 9.560238 electrons
Showing only first 2 kpts
                      Up                     Down
 Kpt  Band  Eigenvalues  Occupancy  Eigenvalues  Occupancy
  0    88      5.11028    1.00000      5.10182    1.00000
  0    89      5.13463    1.00000      5.12984    1.00000
  0    90      7.28686    0.00000      7.28892    0.00000
  0    91      7.30531    0.00000      7.30700    0.00000

  1    88      5.13602    1.00000      5.12783    1.00000
  1    89      5.16510    1.00000      5.15967    1.00000
  1    90      7.22963    0.00000      7.23162    0.00000
  1    91      7.24264    0.00000      7.24431    0.00000

Fermi level: 5.86991

Gap: 1.971 eV
Transition (v -> c):
  (s=0, k=70, n=89, [-0.08, 0.42, 0.12]) -> (s=0, k=58, n=90, [-0.08, -0.08, 0.12])
Writing to born-0.01-22z-.gpw (mode='all')