User:   madkru@g064.nifl.fysik.dtu.dk
Date:   Tue Mar 23 00:18:15 2021
Arch:   x86_64
Pid:    60512
Python: 3.7.4
gpaw:   /home/niflheim/madkru/venv_folder/gpaw/gpaw (d0d1ca1c71)
_gpaw:  /home/niflheim/madkru/venv_folder/gpaw/build/lib.linux-x86_64-sandybridge-3.7/
        _gpaw.cpython-37m-x86_64-linux-gnu.so (4fd39e8b1e)
ase:    /home/niflheim/madkru/venv_folder/ase/ase (version 3.21.0b1-7e6c206a91)
numpy:  /home/niflheim/madkru/venv_folder/lib/python3.7/site-packages/numpy (version 1.19.4)
scipy:  /home/niflheim/madkru/venv_folder/lib/python3.7/site-packages/scipy (version 1.5.4)
units:  Angstrom and eV
cores: 32
OMP_NUM_THREADS: 1

Input parameters:
  convergence: {bands: occupied,
                density: 0.0001,
                eigenstates: 4e-08,
                energy: 0.0005,
                forces: 1e-06}
  kpts: [6 6 4]
  mode: {ecut: 600.0,
         gammacentered: False,
         name: pw}
  occupations: {fixmagmom: False,
                name: fermi-dirac,
                width: 0.001}
  symmetry: {point_group: False,
             time_reversal: False}

System changes: positions, numbers, cell, pbc, initial_charges, initial_magmoms

Initialize ...

O-setup:
  name: Oxygen
  id: 9b9d51c344dea68c822856295a461509
  Z: 8.0
  valence: 6
  core: 2
  charge: 0.0
  file: /home/modules/software/GPAW-setups/0.9.20000/O.LDA.gz
  compensation charges: gauss, rc=0.21, lmax=2
  cutoffs: 1.17(filt), 0.83(core),
  valence states:
                energy  radius
    2s(2.00)   -23.752   0.688
    2p(4.00)    -9.195   0.598
    *s           3.459   0.688
    *p          18.016   0.598
    *d           0.000   0.619

  Using partial waves for O as LCAO basis

Mn-setup:
  name: Manganese
  id: 0d715a8018be061a6e9ea6f2d364ac92
  Z: 25.0
  valence: 15
  core: 10
  charge: 0.0
  file: /home/modules/software/GPAW-setups/0.9.20000/Mn.LDA.gz
  compensation charges: gauss, rc=0.38, lmax=2
  cutoffs: 2.14(filt), 0.86(core),
  valence states:
                energy  radius
    3s(2.00)   -85.387   1.275
    4s(2.00)    -5.282   1.275
    3p(6.00)   -54.493   1.281
    4p(0.00)    -1.471   1.281
    3d(5.00)    -7.009   1.138
    *d          20.203   1.138

[...]

P-setup:
  name: Phosphorus
  id: a5561c299094968922a179ab894d2e2d
  Z: 15.0
  valence: 5
  core: 10
  charge: 0.0
  file: /home/modules/software/GPAW-setups/0.9.20000/P.LDA.gz
  compensation charges: gauss, rc=0.30, lmax=2
  cutoffs: 1.69(filt), 1.81(core),
  valence states:
                energy  radius
    3s(2.00)   -14.015   0.953
    3p(3.00)    -5.596   0.953
    *s          13.197   0.953
    *p          21.615   0.953
    *d           0.000   0.953

[...]

Li-setup:
  name: Lithium
  id: b73562207f97a71b6967473b66fe8b65
  Z: 3.0
  valence: 1
  core: 2
  charge: 0.0
  file: /home/modules/software/GPAW-setups/0.9.20000/Li.LDA.gz
  compensation charges: gauss, rc=0.33, lmax=2
  cutoffs: 1.91(filt), 2.55(core),
  valence states:
                energy  radius
    2s(1.00)    -2.874   1.058
    2p(0.00)    -1.126   1.058
    *s          24.338   1.058

  Using partial waves for Li as LCAO basis

Reference energy: -196157.275402

Spin-polarized calculation.
Magnetic moment: 0.000000

Convergence criteria:
  Maximum total energy change: 0.0005 eV / electron
  Maximum integral of absolute density change: 0.0001 electrons
  Maximum integral of absolute eigenstate change: 4e-08 eV^2
  Maximum change in atomic force: 1e-06 eV / Ang
  Maximum number of iterations: 333

Symmetries present (total): 1

  ( 1  0  0)
  ( 0  1  0)
  ( 0  0  1)

144 k-points: 6 x 6 x 4 Monkhorst-Pack grid
144 k-points in the irreducible part of the Brillouin zone
       k-points in crystal coordinates                weights
   0:    -0.41666667   -0.41666667   -0.37500000          1/144
   1:    -0.41666667   -0.41666667   -0.12500000          1/144
   2:    -0.41666667   -0.41666667    0.12500000          1/144
   3:    -0.41666667   -0.41666667    0.37500000          1/144
   4:    -0.41666667   -0.25000000   -0.37500000          1/144
   5:    -0.41666667   -0.25000000   -0.12500000          1/144
   6:    -0.41666667   -0.25000000    0.12500000          1/144
   7:    -0.41666667   -0.25000000    0.37500000          1/144
   8:    -0.41666667   -0.08333333   -0.37500000          1/144
   9:    -0.41666667   -0.08333333   -0.12500000          1/144
          ...
 143:     0.41666667    0.41666667    0.37500000          1/144

Wave functions: Plane wave expansion
  Cutoff energy: 600.000 eV
  Number of coefficients (min, max): 10068, 10125
  Pulay-stress correction: 0.000000 eV/Ang^3 (de/decut=0.000000)
  Using FFTW library
  ScaLapack parameters: grid=1x1, blocksize=None
  Wavefunction extrapolation:
    Improved wavefunction reuse through dual PAW basis

  Fermi-Dirac: width=0.0010 eV

Eigensolver
   Davidson(niter=2, smin=None, normalize=True)

Densities:
  Coarse grid: 60*35*27 grid
  Fine grid: 120*70*54 grid
  Total Charge: 0.000000

Density mixing:
  Method: difference
  Backend: pulay
  Linear mixing parameter: 0.05
  Mixing with 5 old densities
  Damping of long wave oscillations: 50

Hamiltonian:
  XC and Coulomb potentials evaluated on a 120*70*54 grid
  Using the LDA Exchange-Correlation functional

Total number of cores used: 32
Parallelization over k-points: 16
Domain decomposition: 2 x 1 x 1

Number of atoms: 28
Number of atomic orbitals: 148
Number of bands in calculation: 112
Number of valence electrons: 180
Bands to converge: occupied

... initialized

Initializing position-dependent things.

Density initialized from atomic densities
Creating initial wave functions:
  112 bands from LCAO basis set

    /|         OP              |
   / |O            O        O  |
  /  |       O            O  P |
 *   |O    Mn      O           |
 |   |          OLi          O |
 |   .P-O--------------Mn------.
 |  /          Li    O  Mn  O /
 | /Li O           PO        /
 |/       Mn                /
 *Li-----------------------*

Positions:
   0 O     -1.360678   -2.541161   -1.202221    ( 0.0000,  0.0000,  0.0000)
   1 O     -3.121941    2.976855    1.167242    ( 0.0000,  0.0000,  0.0000)
   2 O      2.107533    0.508090    1.540712    ( 0.0000,  0.0000,  0.0000)
   3 O      3.869373   -0.072395   -0.828750    ( 0.0000,  0.0000,  0.0000)
   4 O      2.107821    2.976875    1.540792    ( 0.0000,  0.0000,  0.0000)
   5 O      3.869084   -2.541141   -0.828671    ( 0.0000,  0.0000,  0.0000)
   6 O     -1.360390   -0.072375   -1.202141    ( 0.0000,  0.0000,  0.0000)
   7 O     -3.122230    0.508109    1.167321    ( 0.0000,  0.0000,  0.0000)
   8 O     -4.403461   -1.306992   -0.794251    ( 0.0000,  0.0000,  0.0000)
   9 O     -0.069585    1.742707    1.575662    ( 0.0000,  0.0000,  0.0000)
  10 O      5.160604    1.742707    1.132822    ( 0.0000,  0.0000,  0.0000)
  11 O      0.816728   -1.306992   -1.237091    ( 0.0000,  0.0000,  0.0000)
  12 Mn    -2.570809   -1.307302    0.247161    ( 0.0000,  0.0000,  1.0000)
  13 Mn    -1.912021    1.743016   -2.122906    ( 0.0000,  0.0000, -1.0000)
  14 Mn     3.317952    1.743017    0.091411    ( 0.0000,  0.0000, -1.0000)
  15 Mn     2.659164   -1.307302    2.461478    ( 0.0000,  0.0000,  1.0000)
  16 P     -0.620664   -1.306816   -1.828465    ( 0.0000,  0.0000,  0.0000)
  17 P     -3.862097    1.742530    0.541238    ( 0.0000,  0.0000,  0.0000)
  18 P      1.367807    1.742530    2.167036    ( 0.0000,  0.0000,  0.0000)
  19 P      4.609240   -1.306816   -0.202666    ( 0.0000,  0.0000,  0.0000)
  20 O     -0.646437   -1.306845    1.374751    ( 0.0000,  0.0000,  0.0000)
  21 O     -3.836504    1.742559   -0.995565    ( 0.0000,  0.0000,  0.0000)
  22 O      1.393580    1.742559   -1.036179    ( 0.0000,  0.0000,  0.0000)
  23 O      4.583647   -1.306845    1.334136    ( 0.0000,  0.0000,  0.0000)
  24 Li    -4.856429   -2.832143   -2.200714    ( 0.0000,  0.0000,  0.0000)
  25 Li     0.373571   -2.832143    0.169286    ( 0.0000,  0.0000,  0.0000)
  26 Li    -4.856429    0.217857   -2.200714    ( 0.0000,  0.0000,  0.0000)
  27 Li     0.373571    0.217857    0.169286    ( 0.0000,  0.0000,  0.0000)

Unit cell:
           periodic     x           y           z      points  spacing
  1. axis:    yes   10.460000    0.000000    0.000000    60     0.1743
  2. axis:    yes    0.000000    6.100000    0.000000    35     0.1743
  3. axis:    yes    0.000000    0.000000    4.740000    27     0.1756

  Lengths:  10.460000   6.100000   4.740000
  Angles:   90.000000  90.000000  90.000000

Effective grid spacing dv^(1/3) = 0.1747

                     log10-error:           total        iterations:
           time      wfs    density  force  energy       poisson  magmom
iter:   1  00:21:15                       -231.917037             +0.0000
iter:   2  00:21:54  -0.55  -0.94         -231.714662             +0.0098
iter:   3  00:22:34  -0.72  -0.98         -220.595374             +0.0122
iter:   4  00:23:13  -0.95  -1.20         -218.885337             +0.0043
iter:   5  00:23:53  -1.93  -1.36         -222.048122             +0.0027
iter:   6  00:24:33  -1.99  -1.45         -220.802013             +0.0013
iter:   7  00:25:12  -1.95  -1.63         -224.687691             -0.0615
iter:   8  00:25:51  -2.27  -1.76         -226.044914             -1.3547
iter:   9  00:26:31  -2.65  -1.80         -226.808139             -0.5506
iter:  10  00:27:10  -2.07  -1.81         -226.641558             +0.0029
iter:  11  00:27:49  -2.00  -1.92         -226.651092             -0.0226
iter:  12  00:28:29  -1.93  -2.11         -226.344257             +0.0110
iter:  13  00:29:08  -3.14  -2.47         -226.313980             -0.0000
iter:  14  00:29:48  -2.48  -2.58         -226.267119             +0.0002
iter:  15  00:30:27  -3.22  -2.69         -226.230766             +0.0000
iter:  16  00:31:07  -4.47  -2.94         -226.230611             -0.0000
iter:  17  00:31:46  -3.71  -2.96         -226.231602             -0.0000
iter:  18  00:32:25  -3.83  -3.02         -226.227309             -0.0000
iter:  19  00:33:05  -4.74  -3.37         -226.226918             -0.0000
iter:  20  00:33:44  -5.47  -3.48         -226.226861             -0.0000
iter:  21  00:34:23  -5.01  -3.57         -226.226252             +0.0000
iter:  22  00:35:03  -5.51  -3.76         -226.226405             -0.0000
iter:  23  00:35:42  -5.17  -3.79         -226.226279             -0.0000
iter:  24  00:36:21  -6.22  -3.93         -226.226220             -0.0000
iter:  25  00:37:01  -5.92  -4.05         -226.226157             -0.0000
iter:  26  00:37:40  -6.30  -4.14         -226.226173             -0.0000
iter:  27  00:38:19  -6.15  -4.24         -226.226145             +0.0000
iter:  28  00:38:59  -7.40  -4.70         -226.226146             +0.0000
iter:  29  00:39:49  -7.70  -4.84         -226.226147             -0.0000
iter:  30  00:40:39  -7.93  -4.93    -2.99-226.226146             -0.0000
iter:  31  00:41:29  -8.82  -5.03    -3.36-226.226146             -0.0000
iter:  32  00:42:19  -8.31  -5.09    -3.11-226.226146             -0.0000
iter:  33  00:43:09  -8.98  -5.20    -3.38-226.226146             -0.0000
iter:  34  00:43:59  -9.70  -5.24    -3.68-226.226146             -0.0000
iter:  35  00:44:49  -8.87  -5.28    -3.22-226.226146             -0.0000
iter:  36  00:45:39  -8.68  -5.42    -3.19-226.226146             -0.0000
iter:  37  00:46:28  -9.36  -5.56    -3.42-226.226146             -0.0000
iter:  38  00:47:18 -10.14  -5.81    -4.29-226.226146             -0.0000
iter:  39  00:48:08  -9.74  -5.84    -3.57-226.226146             -0.0000
iter:  40  00:48:58 -10.21  -6.12    -4.07-226.226146             +0.0000
iter:  41  00:49:48 -11.22  -6.40    -4.85-226.226146             -0.0000
iter:  42  00:50:38 -10.75  -6.45    -4.26-226.226146             -0.0000
iter:  43  00:51:28 -11.20  -6.53    -4.45-226.226146             -0.0000
iter:  44  00:52:18 -12.26  -6.68    -5.50-226.226146             -0.0000
iter:  45  00:53:08 -11.69  -6.70    -4.74-226.226146             -0.0000
iter:  46  00:53:58 -11.92  -6.88    -4.59-226.226146             -0.0000
iter:  47  00:54:48 -12.43  -6.91    -5.21-226.226146             +0.0000
iter:  48  00:55:38 -12.45  -6.96    -5.06-226.226146             +0.0000
iter:  49  00:56:28 -12.09  -7.05    -4.89-226.226146             +0.0000
iter:  50  00:57:18 -12.76  -7.32    -5.11-226.226146             -0.0000
iter:  51  00:58:08 -13.40  -7.52    -5.35-226.226146             -0.0000
iter:  52  00:58:58 -13.30  -7.65    -5.34-226.226146             -0.0000
iter:  53  00:59:48 -14.00  -7.98    -5.68-226.226146             -0.0000
iter:  54  01:00:38 -14.80  -8.07    -6.19-226.226146             -0.0000

Converged after 54 iterations.

Dipole moment: (10.663066, 1.410696, -6.265054) |e|*Ang

Total magnetic moment: (0.000000, 0.000000, -0.000000)
Local magnetic moments:
   0 O  ( 0.000000,  0.000000, -0.000540)
   1 O  ( 0.000000,  0.000000,  0.000548)
   2 O  ( 0.000000,  0.000000,  0.000541)
   3 O  ( 0.000000,  0.000000, -0.000467)
   4 O  ( 0.000000,  0.000000,  0.000521)
   5 O  ( 0.000000,  0.000000, -0.000448)
   6 O  ( 0.000000,  0.000000, -0.000560)
   7 O  ( 0.000000,  0.000000,  0.000567)
   8 O  ( 0.000000,  0.000000,  0.029069)
   9 O  ( 0.000000,  0.000000, -0.028621)
  10 O  ( 0.000000,  0.000000, -0.028771)
  11 O  ( 0.000000,  0.000000,  0.028788)
  12 Mn ( 0.000000,  0.000000,  4.446995)
  13 Mn ( 0.000000,  0.000000, -4.448160)
  14 Mn ( 0.000000,  0.000000, -4.448151)
  15 Mn ( 0.000000,  0.000000,  4.448257)
  16 P  ( 0.000000,  0.000000,  0.001555)
  17 P  ( 0.000000,  0.000000, -0.001508)
  18 P  ( 0.000000,  0.000000, -0.001572)
  19 P  ( 0.000000,  0.000000,  0.001738)
  20 O  ( 0.000000,  0.000000,  0.025124)
  21 O  ( 0.000000,  0.000000, -0.025304)
  22 O  ( 0.000000,  0.000000, -0.025314)
  23 O  ( 0.000000,  0.000000,  0.025268)
  24 Li ( 0.000000,  0.000000,  0.000024)
  25 Li ( 0.000000,  0.000000,  0.000001)
  26 Li ( 0.000000,  0.000000,  0.000024)
  27 Li ( 0.000000,  0.000000,  0.000001)

Energy contributions relative to reference atoms: (reference = -196157.275402)

Kinetic:       +216.755521
Potential:     -194.774148
External:        +0.000000
XC:            -250.249836
Entropy (-ST):   -0.000000
Local:           +2.042317
Free energy:   -226.226146
Extrapolated:  -226.226146

Spin contamination: 9.560274 electrons
Showing only first 2 kpts
                      Up                     Down
 Kpt  Band  Eigenvalues  Occupancy  Eigenvalues  Occupancy
  0    88      5.10838    0.00694      5.10711    0.00694
  0    89      5.15715    0.00694      5.13572    0.00694
  0    90      7.28376    0.00000      7.28586    0.00000
  0    91      7.31017    0.00000      7.31635    0.00000

  1    88      5.13519    0.00694      5.13332    0.00694
  1    89      5.18748    0.00694      5.16571    0.00694
  1    90      7.22561    0.00000      7.22723    0.00000
  1    91      7.24841    0.00000      7.25610    0.00000

Fermi level: 6.11063

Gap: 1.954 eV
Transition (v -> c):
  (s=0, k=69, n=89, [-0.08, 0.42, -0.12]) -> (s=0, k=57, n=90, [-0.08, -0.08, -0.12])
Writing to born-0.01-8x+.gpw (mode='all')