User:   madkru@i009.nifl.fysik.dtu.dk
Date:   Fri Apr  2 06:55:16 2021
Arch:   x86_64
Pid:    31381
Python: 3.8.6
gpaw:   /home/niflheim/madkru/venv_madkru/gpaw/gpaw (e6f0d78a31)
_gpaw:  /home/niflheim/madkru/venv_madkru/gpaw/build/lib.linux-x86_64-ivybridge-3.8/
        _gpaw.cpython-38-x86_64-linux-gnu.so (e6f0d78a31)
ase:    /home/niflheim/madkru/venv_madkru/ase/ase (version 3.22.0b1-4d5a73cb29)
numpy:  /home/modules/software/SciPy-bundle/2020.11-foss-2020b/lib/python3.8/site-packages/numpy (version 1.19.4)
scipy:  /home/modules/software/SciPy-bundle/2020.11-foss-2020b/lib/python3.8/site-packages/scipy (version 1.5.4)
units:  Angstrom and eV
cores: 64
OpenMP: False
OMP_NUM_THREADS: 1

Input parameters:
  convergence: {bands: occupied,
                density: 0.0001,
                eigenstates: 4e-08,
                energy: 0.0005,
                forces: 1e-06}
  kpts: [6 6 4]
  maxiter: 1000
  mode: {ecut: 600.0,
         gammacentered: False,
         name: pw}
  occupations: {fixmagmom: False,
                name: fermi-dirac,
                width: 0.001}
  symmetry: {point_group: False,
             time_reversal: False}

System changes: positions, numbers, cell, pbc, initial_charges, initial_magmoms

Initialize ...

O-setup:
  name: Oxygen
  id: 9b9d51c344dea68c822856295a461509
  Z: 8.0
  valence: 6
  core: 2
  charge: 0.0
  file: /home/modules/software/GPAW-setups/0.9.20000/O.LDA.gz
  compensation charges: gauss, rc=0.21, lmax=2
  cutoffs: 1.17(filt), 0.83(core),
  valence states:
                energy  radius
    2s(2.00)   -23.752   0.688
    2p(4.00)    -9.195   0.598
    *s           3.459   0.688
    *p          18.016   0.598
    *d           0.000   0.619

  Using partial waves for O as LCAO basis

Mn-setup:
  name: Manganese
  id: 0d715a8018be061a6e9ea6f2d364ac92
  Z: 25.0
  valence: 15
  core: 10
  charge: 0.0
  file: /home/modules/software/GPAW-setups/0.9.20000/Mn.LDA.gz
  compensation charges: gauss, rc=0.38, lmax=2
  cutoffs: 2.14(filt), 0.86(core),
  valence states:
                energy  radius
    3s(2.00)   -85.387   1.275
    4s(2.00)    -5.282   1.275
    3p(6.00)   -54.493   1.281
    4p(0.00)    -1.471   1.281
    3d(5.00)    -7.009   1.138
    *d          20.203   1.138

[...]

P-setup:
  name: Phosphorus
  id: a5561c299094968922a179ab894d2e2d
  Z: 15.0
  valence: 5
  core: 10
  charge: 0.0
  file: /home/modules/software/GPAW-setups/0.9.20000/P.LDA.gz
  compensation charges: gauss, rc=0.30, lmax=2
  cutoffs: 1.69(filt), 1.81(core),
  valence states:
                energy  radius
    3s(2.00)   -14.015   0.953
    3p(3.00)    -5.596   0.953
    *s          13.197   0.953
    *p          21.615   0.953
    *d           0.000   0.953

[...]

Li-setup:
  name: Lithium
  id: b73562207f97a71b6967473b66fe8b65
  Z: 3.0
  valence: 1
  core: 2
  charge: 0.0
  file: /home/modules/software/GPAW-setups/0.9.20000/Li.LDA.gz
  compensation charges: gauss, rc=0.33, lmax=2
  cutoffs: 1.91(filt), 2.55(core),
  valence states:
                energy  radius
    2s(1.00)    -2.874   1.058
    2p(0.00)    -1.126   1.058
    *s          24.338   1.058

  Using partial waves for Li as LCAO basis

Reference energy: -196157.275402

Spin-polarized calculation.
Magnetic moment: 0.000000

Convergence criteria:
  Maximum total energy change: 0.0005 eV / electron
  Maximum integral of absolute density change: 0.0001 electrons
  Maximum integral of absolute eigenstate change: 4e-08 eV^2
  Maximum change in atomic force: 1e-06 eV / Ang
  Maximum number of iterations: 1000

Symmetries present (total): 1

  ( 1  0  0)
  ( 0  1  0)
  ( 0  0  1)

144 k-points: 6 x 6 x 4 Monkhorst-Pack grid
144 k-points in the irreducible part of the Brillouin zone
       k-points in crystal coordinates                weights
   0:    -0.41666667   -0.41666667   -0.37500000          1/144
   1:    -0.41666667   -0.41666667   -0.12500000          1/144
   2:    -0.41666667   -0.41666667    0.12500000          1/144
   3:    -0.41666667   -0.41666667    0.37500000          1/144
   4:    -0.41666667   -0.25000000   -0.37500000          1/144
   5:    -0.41666667   -0.25000000   -0.12500000          1/144
   6:    -0.41666667   -0.25000000    0.12500000          1/144
   7:    -0.41666667   -0.25000000    0.37500000          1/144
   8:    -0.41666667   -0.08333333   -0.37500000          1/144
   9:    -0.41666667   -0.08333333   -0.12500000          1/144
          ...
 143:     0.41666667    0.41666667    0.37500000          1/144

Wave functions: Plane wave expansion
  Cutoff energy: 600.000 eV
  Number of coefficients (min, max): 10068, 10125
  Pulay-stress correction: 0.000000 eV/Ang^3 (de/decut=0.000000)
  Using FFTW library
  ScaLapack parameters: grid=1x1, blocksize=None
  Wavefunction extrapolation:
    Improved wavefunction reuse through dual PAW basis

  Fermi-Dirac: width=0.0010 eV

Eigensolver
   Davidson(niter=2)

Densities:
  Coarse grid: 60*35*27 grid
  Fine grid: 120*70*54 grid
  Total Charge: 0.000000

Density mixing:
  Method: difference
  Backend: pulay
  Linear mixing parameter: 0.05
  Mixing with 5 old densities
  Damping of long wave oscillations: 50

Hamiltonian:
  XC and Coulomb potentials evaluated on a 120*70*54 grid
  Using the LDA Exchange-Correlation functional

Total number of cores used: 64
Parallelization over k-points: 16
Domain decomposition: 2 x 2 x 1

Number of atoms: 28
Number of atomic orbitals: 148
Number of bands in calculation: 112
Number of valence electrons: 180
Bands to converge: occupied

... initialized

Initializing position-dependent things.

Density initialized from atomic densities
Creating initial wave functions:
  112 bands from LCAO basis set

    /|         OP              |
   / |O            O        O  |
  /  |       O            O  P |
 *   |O    Mn      O           |
 |   |          OLi          O |
 |   .P-O--------------Mn------.
 |  /          Li    O  Mn  O /
 | /Li O           PO        /
 |/       Mn                /
 *Li-----------------------*

Positions:
   0 O     -1.360678   -2.541161   -1.202221    ( 0.0000,  0.0000,  0.0000)
   1 O     -3.121941    2.976855    1.167242    ( 0.0000,  0.0000,  0.0000)
   2 O      2.107533    0.508090    1.540712    ( 0.0000,  0.0000,  0.0000)
   3 O      3.869373   -0.072395   -0.828750    ( 0.0000,  0.0000,  0.0000)
   4 O      2.107821    2.976875    1.540792    ( 0.0000,  0.0000,  0.0000)
   5 O      3.869084   -2.541141   -0.828671    ( 0.0000,  0.0000,  0.0000)
   6 O     -1.360390   -0.072375   -1.202141    ( 0.0000,  0.0000,  0.0000)
   7 O     -3.122230    0.508109    1.167321    ( 0.0000,  0.0000,  0.0000)
   8 O     -4.413461   -1.306992   -0.794251    ( 0.0000,  0.0000,  0.0000)
   9 O     -0.069585    1.742707    1.575662    ( 0.0000,  0.0000,  0.0000)
  10 O      5.160604    1.742707    1.132822    ( 0.0000,  0.0000,  0.0000)
  11 O      0.816728   -1.306992   -1.237091    ( 0.0000,  0.0000,  0.0000)
  12 Mn    -2.570809   -1.307302    0.247161    ( 0.0000,  0.0000,  1.0000)
  13 Mn    -1.912021    1.743016   -2.122906    ( 0.0000,  0.0000, -1.0000)
  14 Mn     3.317952    1.743017    0.091411    ( 0.0000,  0.0000, -1.0000)
  15 Mn     2.659164   -1.307302    2.461478    ( 0.0000,  0.0000,  1.0000)
  16 P     -0.620664   -1.306816   -1.828465    ( 0.0000,  0.0000,  0.0000)
  17 P     -3.862097    1.742530    0.541238    ( 0.0000,  0.0000,  0.0000)
  18 P      1.367807    1.742530    2.167036    ( 0.0000,  0.0000,  0.0000)
  19 P      4.609240   -1.306816   -0.202666    ( 0.0000,  0.0000,  0.0000)
  20 O     -0.646437   -1.306845    1.374751    ( 0.0000,  0.0000,  0.0000)
  21 O     -3.836504    1.742559   -0.995565    ( 0.0000,  0.0000,  0.0000)
  22 O      1.393580    1.742559   -1.036179    ( 0.0000,  0.0000,  0.0000)
  23 O      4.583647   -1.306845    1.334136    ( 0.0000,  0.0000,  0.0000)
  24 Li    -4.856429   -2.832143   -2.200714    ( 0.0000,  0.0000,  0.0000)
  25 Li     0.373571   -2.822143    0.169286    ( 0.0000,  0.0000,  0.0000)
  26 Li    -4.856429    0.217857   -2.200714    ( 0.0000,  0.0000,  0.0000)
  27 Li     0.373571    0.217857    0.169286    ( 0.0000,  0.0000,  0.0000)

Unit cell:
           periodic     x           y           z      points  spacing
  1. axis:    yes   10.460000    0.000000    0.000000    60     0.1743
  2. axis:    yes    0.000000    6.100000    0.000000    35     0.1743
  3. axis:    yes    0.000000    0.000000    4.740000    27     0.1756

  Lengths:  10.460000   6.100000   4.740000
  Angles:   90.000000  90.000000  90.000000

Effective grid spacing dv^(1/3) = 0.1747

                     log10-error:           total        iterations:
           time      wfs    density  force  energy       poisson  magmom
iter:   1  06:56:46                       -231.920362             +0.0000
iter:   2  06:57:06  -0.55  -0.94         -231.731037             -0.0155
iter:   3  06:57:27  -0.72  -0.98         -220.588663             -0.0194
iter:   4  06:57:48  -0.94  -1.20         -218.873458             -0.0095
iter:   5  06:58:08  -1.93  -1.36         -222.357023             -0.0056
iter:   6  06:58:29  -1.98  -1.42         -220.995341             -0.0027
iter:   7  06:58:50  -2.21  -1.66         -223.714833             -0.0017
iter:   8  06:59:10  -1.79  -1.89         -226.591895             -0.0002
iter:   9  06:59:31  -1.92  -1.93         -226.553334             -0.0000
iter:  10  06:59:52  -2.29  -2.02         -226.553261             +0.0000
iter:  11  07:00:12  -2.50  -2.08         -226.424767             +0.0000
iter:  12  07:00:33  -3.20  -2.22         -226.315096             +0.0000
iter:  13  07:00:54  -2.40  -2.39         -226.289097             +0.0000
iter:  14  07:01:15  -3.19  -2.60         -226.236356             +0.0000
iter:  15  07:01:35  -3.76  -3.00         -226.228979             -0.0000
iter:  16  07:01:56  -3.80  -3.06         -226.236869             +0.0000
iter:  17  07:02:17  -4.00  -3.05         -226.229702             +0.0000
iter:  18  07:02:37  -4.20  -3.24         -226.228391             +0.0000
iter:  19  07:02:58  -4.45  -3.25         -226.228703             +0.0000
iter:  20  07:03:19  -3.97  -3.21         -226.229439             +0.0000
iter:  21  07:03:40  -4.53  -3.31         -226.227968             +0.0000
iter:  22  07:04:00  -4.84  -3.84         -226.228378             +0.0000
iter:  23  07:04:21  -5.42  -3.69         -226.227979             +0.0000
iter:  24  07:04:42  -6.16  -4.01         -226.227933             +0.0000
iter:  25  07:05:02  -6.27  -4.04         -226.227924             +0.0000
iter:  26  07:05:23  -6.60  -4.14         -226.227907             +0.0000
iter:  27  07:05:44  -6.12  -4.17         -226.227936             +0.0000
iter:  28  07:06:04  -6.06  -4.12         -226.227901             +0.0000
iter:  29  07:06:25  -6.90  -4.67         -226.227901             +0.0000
iter:  30  07:06:46  -7.08  -4.77         -226.227897             +0.0000
iter:  31  07:07:12  -7.55  -4.83         -226.227898             +0.0000
iter:  32  07:07:37  -7.83  -5.04    -3.30-226.227898             -0.0000
iter:  33  07:07:58  -7.38  -4.99         -226.227897             -0.0000
iter:  34  07:08:24  -8.57  -5.30    -2.78-226.227897             -0.0000
iter:  35  07:08:50  -8.15  -5.38    -3.11-226.227897             -0.0000
iter:  36  07:09:16  -8.76  -5.34    -3.21-226.227897             -0.0000
iter:  37  07:09:42  -9.42  -5.72    -3.77-226.227897             -0.0000
iter:  38  07:10:08  -9.56  -5.83    -3.84-226.227897             -0.0000
iter:  39  07:10:34 -10.20  -6.03    -4.08-226.227897             +0.0000
iter:  40  07:11:00 -10.65  -6.09    -4.49-226.227897             +0.0000
iter:  41  07:11:26 -10.75  -6.22    -4.34-226.227897             +0.0000
iter:  42  07:11:51 -11.53  -6.34    -4.95-226.227897             +0.0000
iter:  43  07:12:17 -11.08  -6.39    -4.20-226.227897             +0.0000
iter:  44  07:12:43 -11.33  -6.62    -4.87-226.227897             +0.0000
iter:  45  07:13:09 -11.31  -6.70    -4.68-226.227897             +0.0000
iter:  46  07:13:35 -11.26  -6.80    -4.71-226.227897             +0.0000
iter:  47  07:14:01 -12.16  -7.03    -5.16-226.227897             +0.0000
iter:  48  07:14:27 -13.05  -7.12    -5.60-226.227897             -0.0000
iter:  49  07:14:52 -11.83  -7.18    -4.89-226.227897             -0.0000
iter:  50  07:15:18 -12.96  -7.48    -5.57-226.227897             +0.0000
iter:  51  07:15:44 -13.68  -7.53    -5.93-226.227897             +0.0000
iter:  52  07:16:10 -13.50  -7.57    -5.45-226.227897             +0.0000
iter:  53  07:16:36 -12.99  -7.67    -5.48-226.227897             +0.0000
iter:  54  07:17:02 -13.86  -7.88    -5.72-226.227897             +0.0000
iter:  55  07:17:28 -14.35  -8.10    -5.98-226.227897             +0.0000
iter:  56  07:17:53 -14.60  -8.21    -6.18-226.227897             +0.0000

Converged after 56 iterations.

Dipole moment: (10.671040, 1.416733, -6.269968) |e|*Ang

Total magnetic moment: (0.000000, 0.000000, 0.000000)
Local magnetic moments:
   0 O  ( 0.000000,  0.000000, -0.000467)
   1 O  ( 0.000000,  0.000000,  0.000553)
   2 O  ( 0.000000,  0.000000,  0.000565)
   3 O  ( 0.000000,  0.000000, -0.000536)
   4 O  ( 0.000000,  0.000000,  0.000569)
   5 O  ( 0.000000,  0.000000, -0.000515)
   6 O  ( 0.000000,  0.000000, -0.000511)
   7 O  ( 0.000000,  0.000000,  0.000571)
   8 O  ( 0.000000,  0.000000,  0.028715)
   9 O  ( 0.000000,  0.000000, -0.028757)
  10 O  ( 0.000000,  0.000000, -0.028671)
  11 O  ( 0.000000,  0.000000,  0.028646)
  12 Mn ( 0.000000,  0.000000,  4.448149)
  13 Mn ( 0.000000,  0.000000, -4.448313)
  14 Mn ( 0.000000,  0.000000, -4.448174)
  15 Mn ( 0.000000,  0.000000,  4.448168)
  16 P  ( 0.000000,  0.000000,  0.001557)
  17 P  ( 0.000000,  0.000000, -0.001547)
  18 P  ( 0.000000,  0.000000, -0.001558)
  19 P  ( 0.000000,  0.000000,  0.001540)
  20 O  ( 0.000000,  0.000000,  0.025291)
  21 O  ( 0.000000,  0.000000, -0.025294)
  22 O  ( 0.000000,  0.000000, -0.025338)
  23 O  ( 0.000000,  0.000000,  0.025318)
  24 Li ( 0.000000,  0.000000, -0.000000)
  25 Li ( 0.000000,  0.000000,  0.000008)
  26 Li ( 0.000000,  0.000000, -0.000000)
  27 Li ( 0.000000,  0.000000, -0.000001)

Energy contributions relative to reference atoms: (reference = -196157.275402)

Kinetic:       +217.352554
Potential:     -195.237464
External:        +0.000000
XC:            -250.384140
Entropy (-ST):   -0.000000
Local:           +2.041153
Free energy:   -226.227897
Extrapolated:  -226.227897

Spin contamination: 9.560411 electrons
Showing only first 2 kpts
                      Up                     Down
 Kpt  Band  Eigenvalues  Occupancy  Eigenvalues  Occupancy
  0    88      5.10840    1.00000      5.11135    1.00000
  0    89      5.13277    1.00000      5.13600    1.00000
  0    90      7.29017    0.00000      7.28709    0.00000
  0    91      7.30777    0.00000      7.30497    0.00000

  1    88      5.13406    1.00000      5.13715    1.00000
  1    89      5.16321    1.00000      5.16646    1.00000
  1    90      7.23293    0.00000      7.22991    0.00000
  1    91      7.24506    0.00000      7.24229    0.00000

Fermi level: 6.54148

Gap: 1.969 eV
Transition (v -> c):
  (s=1, k=49, n=89, [-0.08, -0.42, -0.12]) -> (s=1, k=86, n=90, [0.08, 0.08, 0.12])
Writing to born-0.01-25y+.gpw (mode='all')