User:   madkru@g043.nifl.fysik.dtu.dk
Date:   Wed Mar 31 22:24:50 2021
Arch:   x86_64
Pid:    39387
Python: 3.8.6
gpaw:   /home/niflheim/madkru/venv_madkru/gpaw/gpaw (e6f0d78a31)
_gpaw:  /home/niflheim/madkru/venv_madkru/gpaw/build/lib.linux-x86_64-sandybridge-3.8/
        _gpaw.cpython-38-x86_64-linux-gnu.so (e6f0d78a31)
ase:    /home/niflheim/madkru/venv_madkru/ase/ase (version 3.22.0b1-4d5a73cb29)
numpy:  /home/modules/software/SciPy-bundle/2020.11-foss-2020b/lib/python3.8/site-packages/numpy (version 1.19.4)
scipy:  /home/modules/software/SciPy-bundle/2020.11-foss-2020b/lib/python3.8/site-packages/scipy (version 1.5.4)
units:  Angstrom and eV
cores: 64
OpenMP: False
OMP_NUM_THREADS: 1

Input parameters:
  convergence: {bands: occupied,
                density: 0.0001,
                eigenstates: 4e-08,
                energy: 0.0005,
                forces: 1e-06}
  kpts: [6 6 4]
  maxiter: 1000
  mode: {ecut: 600.0,
         gammacentered: False,
         name: pw}
  occupations: {fixmagmom: False,
                name: fermi-dirac,
                width: 0.001}
  symmetry: {point_group: False,
             time_reversal: False}

System changes: positions, numbers, cell, pbc, initial_charges, initial_magmoms

Initialize ...

O-setup:
  name: Oxygen
  id: 9b9d51c344dea68c822856295a461509
  Z: 8.0
  valence: 6
  core: 2
  charge: 0.0
  file: /home/modules/software/GPAW-setups/0.9.20000/O.LDA.gz
  compensation charges: gauss, rc=0.21, lmax=2
  cutoffs: 1.17(filt), 0.83(core),
  valence states:
                energy  radius
    2s(2.00)   -23.752   0.688
    2p(4.00)    -9.195   0.598
    *s           3.459   0.688
    *p          18.016   0.598
    *d           0.000   0.619

  Using partial waves for O as LCAO basis

Mn-setup:
  name: Manganese
  id: 0d715a8018be061a6e9ea6f2d364ac92
  Z: 25.0
  valence: 15
  core: 10
  charge: 0.0
  file: /home/modules/software/GPAW-setups/0.9.20000/Mn.LDA.gz
  compensation charges: gauss, rc=0.38, lmax=2
  cutoffs: 2.14(filt), 0.86(core),
  valence states:
                energy  radius
    3s(2.00)   -85.387   1.275
    4s(2.00)    -5.282   1.275
    3p(6.00)   -54.493   1.281
    4p(0.00)    -1.471   1.281
    3d(5.00)    -7.009   1.138
    *d          20.203   1.138

[...]

P-setup:
  name: Phosphorus
  id: a5561c299094968922a179ab894d2e2d
  Z: 15.0
  valence: 5
  core: 10
  charge: 0.0
  file: /home/modules/software/GPAW-setups/0.9.20000/P.LDA.gz
  compensation charges: gauss, rc=0.30, lmax=2
  cutoffs: 1.69(filt), 1.81(core),
  valence states:
                energy  radius
    3s(2.00)   -14.015   0.953
    3p(3.00)    -5.596   0.953
    *s          13.197   0.953
    *p          21.615   0.953
    *d           0.000   0.953

[...]

Li-setup:
  name: Lithium
  id: b73562207f97a71b6967473b66fe8b65
  Z: 3.0
  valence: 1
  core: 2
  charge: 0.0
  file: /home/modules/software/GPAW-setups/0.9.20000/Li.LDA.gz
  compensation charges: gauss, rc=0.33, lmax=2
  cutoffs: 1.91(filt), 2.55(core),
  valence states:
                energy  radius
    2s(1.00)    -2.874   1.058
    2p(0.00)    -1.126   1.058
    *s          24.338   1.058

  Using partial waves for Li as LCAO basis

Reference energy: -196157.275402

Spin-polarized calculation.
Magnetic moment: 0.000000

Convergence criteria:
  Maximum total energy change: 0.0005 eV / electron
  Maximum integral of absolute density change: 0.0001 electrons
  Maximum integral of absolute eigenstate change: 4e-08 eV^2
  Maximum change in atomic force: 1e-06 eV / Ang
  Maximum number of iterations: 1000

Symmetries present (total): 1

  ( 1  0  0)
  ( 0  1  0)
  ( 0  0  1)

144 k-points: 6 x 6 x 4 Monkhorst-Pack grid
144 k-points in the irreducible part of the Brillouin zone
       k-points in crystal coordinates                weights
   0:    -0.41666667   -0.41666667   -0.37500000          1/144
   1:    -0.41666667   -0.41666667   -0.12500000          1/144
   2:    -0.41666667   -0.41666667    0.12500000          1/144
   3:    -0.41666667   -0.41666667    0.37500000          1/144
   4:    -0.41666667   -0.25000000   -0.37500000          1/144
   5:    -0.41666667   -0.25000000   -0.12500000          1/144
   6:    -0.41666667   -0.25000000    0.12500000          1/144
   7:    -0.41666667   -0.25000000    0.37500000          1/144
   8:    -0.41666667   -0.08333333   -0.37500000          1/144
   9:    -0.41666667   -0.08333333   -0.12500000          1/144
          ...
 143:     0.41666667    0.41666667    0.37500000          1/144

Wave functions: Plane wave expansion
  Cutoff energy: 600.000 eV
  Number of coefficients (min, max): 10068, 10125
  Pulay-stress correction: 0.000000 eV/Ang^3 (de/decut=0.000000)
  Using FFTW library
  ScaLapack parameters: grid=1x1, blocksize=None
  Wavefunction extrapolation:
    Improved wavefunction reuse through dual PAW basis

  Fermi-Dirac: width=0.0010 eV

Eigensolver
   Davidson(niter=2)

Densities:
  Coarse grid: 60*35*27 grid
  Fine grid: 120*70*54 grid
  Total Charge: 0.000000

Density mixing:
  Method: difference
  Backend: pulay
  Linear mixing parameter: 0.05
  Mixing with 5 old densities
  Damping of long wave oscillations: 50

Hamiltonian:
  XC and Coulomb potentials evaluated on a 120*70*54 grid
  Using the LDA Exchange-Correlation functional

Total number of cores used: 64
Parallelization over k-points: 16
Domain decomposition: 2 x 2 x 1

Number of atoms: 28
Number of atomic orbitals: 148
Number of bands in calculation: 112
Number of valence electrons: 180
Bands to converge: occupied

... initialized

Initializing position-dependent things.

Density initialized from atomic densities
Creating initial wave functions:
  112 bands from LCAO basis set

    /|         OP              |
   / |O            O        O  |
  /  |       O            O  P |
 *   |O    Mn      O           |
 |   |          OLi          O |
 |   .P-O--------------Mn------.
 |  /          Li    O  Mn  O /
 | /Li O           PO        /
 |/       Mn                /
 *Li-----------------------*

Positions:
   0 O     -1.360678   -2.541161   -1.202221    ( 0.0000,  0.0000,  0.0000)
   1 O     -3.121941    2.976855    1.167242    ( 0.0000,  0.0000,  0.0000)
   2 O      2.107533    0.508090    1.540712    ( 0.0000,  0.0000,  0.0000)
   3 O      3.869373   -0.072395   -0.828750    ( 0.0000,  0.0000,  0.0000)
   4 O      2.107821    2.976875    1.540792    ( 0.0000,  0.0000,  0.0000)
   5 O      3.869084   -2.541141   -0.828671    ( 0.0000,  0.0000,  0.0000)
   6 O     -1.360390   -0.072375   -1.202141    ( 0.0000,  0.0000,  0.0000)
   7 O     -3.122230    0.508109    1.167321    ( 0.0000,  0.0000,  0.0000)
   8 O     -4.413461   -1.306992   -0.794251    ( 0.0000,  0.0000,  0.0000)
   9 O     -0.069585    1.742707    1.575662    ( 0.0000,  0.0000,  0.0000)
  10 O      5.160604    1.742707    1.132822    ( 0.0000,  0.0000,  0.0000)
  11 O      0.816728   -1.306992   -1.237091    ( 0.0000,  0.0000,  0.0000)
  12 Mn    -2.570809   -1.307302    0.247161    ( 0.0000,  0.0000,  1.0000)
  13 Mn    -1.912021    1.743016   -2.122906    ( 0.0000,  0.0000, -1.0000)
  14 Mn     3.317952    1.743017    0.091411    ( 0.0000,  0.0000, -1.0000)
  15 Mn     2.659164   -1.307302    2.461478    ( 0.0000,  0.0000,  1.0000)
  16 P     -0.620664   -1.306816   -1.828465    ( 0.0000,  0.0000,  0.0000)
  17 P     -3.862097    1.742530    0.541238    ( 0.0000,  0.0000,  0.0000)
  18 P      1.367807    1.742530    2.167036    ( 0.0000,  0.0000,  0.0000)
  19 P      4.609240   -1.306816   -0.202666    ( 0.0000,  0.0000,  0.0000)
  20 O     -0.646437   -1.306845    1.374751    ( 0.0000,  0.0000,  0.0000)
  21 O     -3.826504    1.742559   -0.995565    ( 0.0000,  0.0000,  0.0000)
  22 O      1.393580    1.742559   -1.036179    ( 0.0000,  0.0000,  0.0000)
  23 O      4.583647   -1.306845    1.334136    ( 0.0000,  0.0000,  0.0000)
  24 Li    -4.856429   -2.832143   -2.200714    ( 0.0000,  0.0000,  0.0000)
  25 Li     0.373571   -2.832143    0.169286    ( 0.0000,  0.0000,  0.0000)
  26 Li    -4.856429    0.217857   -2.200714    ( 0.0000,  0.0000,  0.0000)
  27 Li     0.373571    0.217857    0.169286    ( 0.0000,  0.0000,  0.0000)

Unit cell:
           periodic     x           y           z      points  spacing
  1. axis:    yes   10.460000    0.000000    0.000000    60     0.1743
  2. axis:    yes    0.000000    6.100000    0.000000    35     0.1743
  3. axis:    yes    0.000000    0.000000    4.740000    27     0.1756

  Lengths:  10.460000   6.100000   4.740000
  Angles:   90.000000  90.000000  90.000000

Effective grid spacing dv^(1/3) = 0.1747

                     log10-error:           total        iterations:
           time      wfs    density  force  energy       poisson  magmom
iter:   1  22:26:25                       -231.921558             +0.0000
iter:   2  22:26:47  -0.55  -0.94         -231.721569             +0.0057
iter:   3  22:27:08  -0.72  -0.98         -220.591388             +0.0071
iter:   4  22:27:29  -0.96  -1.20         -218.874127             +0.0023
iter:   5  22:27:50  -1.93  -1.36         -220.884756             +0.0015
iter:   6  22:28:12  -1.87  -1.53         -219.754478             +0.0009
iter:   7  22:28:33  -2.10  -1.60         -223.352169             -0.2658
iter:   8  22:28:54  -2.52  -1.88         -220.909752             -0.4624
iter:   9  22:29:16  -1.76  -1.90         -226.873326             +0.0595
iter:  10  22:29:37  -2.92  -1.85         -227.221642             +0.0151
iter:  11  22:29:58  -2.18  -1.81         -226.887629             -0.0012
iter:  12  22:30:19  -3.54  -1.93         -226.936165             +0.0016
iter:  13  22:30:41  -1.80  -1.96         -226.363972             +0.0006
iter:  14  22:31:02  -2.74  -2.38         -226.365528             +0.0005
iter:  15  22:31:23  -1.98  -2.40         -226.420700             +0.0006
iter:  16  22:31:44  -2.62  -2.54         -226.235953             +0.0002
iter:  17  22:32:06  -3.92  -3.08         -226.234027             +0.0001
iter:  18  22:32:27  -3.58  -3.11         -226.229085             -0.0000
iter:  19  22:32:48  -4.21  -3.22         -226.229259             +0.0000
iter:  20  22:33:09  -4.89  -3.21         -226.228201             +0.0000
iter:  21  22:33:31  -4.68  -3.26         -226.228510             +0.0000
iter:  22  22:33:52  -4.83  -3.29         -226.227910             +0.0000
iter:  23  22:34:14  -4.82  -3.40         -226.228699             +0.0000
iter:  24  22:34:35  -5.15  -3.45         -226.228199             +0.0000
iter:  25  22:34:56  -5.59  -3.56         -226.227985             +0.0000
iter:  26  22:35:17  -5.12  -3.63         -226.227674             +0.0000
iter:  27  22:35:38  -5.54  -3.90         -226.227744             +0.0000
iter:  28  22:36:00  -6.66  -3.99         -226.227724             +0.0000
iter:  29  22:36:21  -6.23  -4.03         -226.227681             -0.0000
iter:  30  22:36:42  -7.11  -4.17         -226.227678             -0.0000
iter:  31  22:37:04  -7.25  -4.25         -226.227668             -0.0000
iter:  32  22:37:25  -6.29  -4.28         -226.227663             -0.0000
iter:  33  22:37:46  -7.35  -4.41         -226.227662             -0.0000
iter:  34  22:38:13  -8.00  -4.48         -226.227662             -0.0000
iter:  35  22:38:34  -6.62  -4.51         -226.227662             -0.0000
iter:  36  22:39:01  -7.46  -4.81    -2.68-226.227659             -0.0000
iter:  37  22:39:28  -8.41  -5.05    -3.32-226.227659             -0.0000
iter:  38  22:39:54  -8.20  -5.11    -3.22-226.227659             +0.0000
iter:  39  22:40:21  -8.36  -5.23    -3.12-226.227659             +0.0000
iter:  40  22:40:48  -8.86  -5.28    -3.43-226.227659             +0.0000
iter:  41  22:41:14  -8.14  -5.35    -3.06-226.227659             +0.0000
iter:  42  22:41:41  -8.27  -5.40    -3.15-226.227659             +0.0000
iter:  43  22:42:08  -9.73  -5.95    -3.72-226.227659             +0.0000
iter:  44  22:42:35  -9.81  -6.04    -3.85-226.227659             +0.0000
iter:  45  22:43:01 -10.29  -6.13    -4.07-226.227659             +0.0000
iter:  46  22:43:28 -10.82  -6.26    -4.53-226.227659             +0.0000
iter:  47  22:43:55 -10.55  -6.34    -4.64-226.227658             +0.0000
iter:  48  22:44:21 -11.65  -6.39    -4.79-226.227658             +0.0000
iter:  49  22:44:48 -11.06  -6.40    -4.34-226.227658             +0.0000
iter:  50  22:45:15 -12.09  -6.47    -5.19-226.227658             +0.0000
iter:  51  22:45:42 -10.65  -6.49    -4.62-226.227659             -0.0000
iter:  52  22:46:08 -11.57  -6.62    -4.73-226.227658             +0.0000
iter:  53  22:46:35 -11.07  -6.67    -4.27-226.227658             +0.0000
iter:  54  22:47:02 -11.16  -6.88    -4.55-226.227658             +0.0000
iter:  55  22:47:28 -12.56  -7.27    -5.10-226.227658             -0.0000
iter:  56  22:47:55 -12.58  -7.45    -5.26-226.227658             +0.0000
iter:  57  22:48:22 -13.16  -7.60    -6.07-226.227658             +0.0000

Converged after 57 iterations.

Dipole moment: (10.666999, 1.410561, -6.269093) |e|*Ang

Total magnetic moment: (0.000000, 0.000000, 0.000000)
Local magnetic moments:
   0 O  ( 0.000000,  0.000000, -0.000562)
   1 O  ( 0.000000,  0.000000,  0.000540)
   2 O  ( 0.000000,  0.000000,  0.000524)
   3 O  ( 0.000000,  0.000000, -0.000601)
   4 O  ( 0.000000,  0.000000,  0.000504)
   5 O  ( 0.000000,  0.000000, -0.000581)
   6 O  ( 0.000000,  0.000000, -0.000582)
   7 O  ( 0.000000,  0.000000,  0.000560)
   8 O  ( 0.000000,  0.000000,  0.028618)
   9 O  ( 0.000000,  0.000000, -0.028548)
  10 O  ( 0.000000,  0.000000, -0.028716)
  11 O  ( 0.000000,  0.000000,  0.028747)
  12 Mn ( 0.000000,  0.000000,  4.448135)
  13 Mn ( 0.000000,  0.000000, -4.447835)
  14 Mn ( 0.000000,  0.000000, -4.448067)
  15 Mn ( 0.000000,  0.000000,  4.448223)
  16 P  ( 0.000000,  0.000000,  0.001529)
  17 P  ( 0.000000,  0.000000, -0.001741)
  18 P  ( 0.000000,  0.000000, -0.001563)
  19 P  ( 0.000000,  0.000000,  0.001549)
  20 O  ( 0.000000,  0.000000,  0.025323)
  21 O  ( 0.000000,  0.000000, -0.025389)
  22 O  ( 0.000000,  0.000000, -0.025345)
  23 O  ( 0.000000,  0.000000,  0.025293)
  24 Li ( 0.000000,  0.000000, -0.000003)
  25 Li ( 0.000000,  0.000000, -0.000000)
  26 Li ( 0.000000,  0.000000, -0.000003)
  27 Li ( 0.000000,  0.000000, -0.000000)

Energy contributions relative to reference atoms: (reference = -196157.275402)

Kinetic:       +217.419988
Potential:     -195.292431
External:        +0.000000
XC:            -250.396025
Entropy (-ST):   -0.000000
Local:           +2.040810
Free energy:   -226.227658
Extrapolated:  -226.227658

Spin contamination: 9.560275 electrons
Showing only first 2 kpts
                      Up                     Down
 Kpt  Band  Eigenvalues  Occupancy  Eigenvalues  Occupancy
  0    88      5.11067    1.00000      5.11247    1.00000
  0    89      5.13637    1.00000      5.14384    1.00000
  0    90      7.28831    0.00000      7.28973    0.00000
  0    91      7.31468    0.00000      7.30797    0.00000

  1    88      5.13641    1.00000      5.13912    1.00000
  1    89      5.16675    1.00000      5.17480    1.00000
  1    90      7.22988    0.00000      7.23231    0.00000
  1    91      7.25183    0.00000      7.24552    0.00000

Fermi level: 6.39877

Gap: 1.965 eV
Transition (v -> c):
  (s=1, k=70, n=89, [-0.08, 0.42, 0.12]) -> (s=0, k=57, n=90, [-0.08, -0.08, -0.12])
Writing to born-0.01-21x+.gpw (mode='all')