User:   madkru@g064.nifl.fysik.dtu.dk
Date:   Mon Mar 22 04:36:58 2021
Arch:   x86_64
Pid:    60512
Python: 3.7.4
gpaw:   /home/niflheim/madkru/venv_folder/gpaw/gpaw (d0d1ca1c71)
_gpaw:  /home/niflheim/madkru/venv_folder/gpaw/build/lib.linux-x86_64-sandybridge-3.7/
        _gpaw.cpython-37m-x86_64-linux-gnu.so (4fd39e8b1e)
ase:    /home/niflheim/madkru/venv_folder/ase/ase (version 3.21.0b1-7e6c206a91)
numpy:  /home/niflheim/madkru/venv_folder/lib/python3.7/site-packages/numpy (version 1.19.4)
scipy:  /home/niflheim/madkru/venv_folder/lib/python3.7/site-packages/scipy (version 1.5.4)
units:  Angstrom and eV
cores: 32
OMP_NUM_THREADS: 1

Input parameters:
  convergence: {bands: occupied,
                density: 0.0001,
                eigenstates: 4e-08,
                energy: 0.0005,
                forces: 1e-06}
  kpts: [6 6 4]
  mode: {ecut: 600.0,
         gammacentered: False,
         name: pw}
  occupations: {fixmagmom: False,
                name: fermi-dirac,
                width: 0.001}
  symmetry: {point_group: False,
             time_reversal: False}

System changes: positions, numbers, cell, pbc, initial_charges, initial_magmoms

Initialize ...

O-setup:
  name: Oxygen
  id: 9b9d51c344dea68c822856295a461509
  Z: 8.0
  valence: 6
  core: 2
  charge: 0.0
  file: /home/modules/software/GPAW-setups/0.9.20000/O.LDA.gz
  compensation charges: gauss, rc=0.21, lmax=2
  cutoffs: 1.17(filt), 0.83(core),
  valence states:
                energy  radius
    2s(2.00)   -23.752   0.688
    2p(4.00)    -9.195   0.598
    *s           3.459   0.688
    *p          18.016   0.598
    *d           0.000   0.619

  Using partial waves for O as LCAO basis

Mn-setup:
  name: Manganese
  id: 0d715a8018be061a6e9ea6f2d364ac92
  Z: 25.0
  valence: 15
  core: 10
  charge: 0.0
  file: /home/modules/software/GPAW-setups/0.9.20000/Mn.LDA.gz
  compensation charges: gauss, rc=0.38, lmax=2
  cutoffs: 2.14(filt), 0.86(core),
  valence states:
                energy  radius
    3s(2.00)   -85.387   1.275
    4s(2.00)    -5.282   1.275
    3p(6.00)   -54.493   1.281
    4p(0.00)    -1.471   1.281
    3d(5.00)    -7.009   1.138
    *d          20.203   1.138

[...]

P-setup:
  name: Phosphorus
  id: a5561c299094968922a179ab894d2e2d
  Z: 15.0
  valence: 5
  core: 10
  charge: 0.0
  file: /home/modules/software/GPAW-setups/0.9.20000/P.LDA.gz
  compensation charges: gauss, rc=0.30, lmax=2
  cutoffs: 1.69(filt), 1.81(core),
  valence states:
                energy  radius
    3s(2.00)   -14.015   0.953
    3p(3.00)    -5.596   0.953
    *s          13.197   0.953
    *p          21.615   0.953
    *d           0.000   0.953

[...]

Li-setup:
  name: Lithium
  id: b73562207f97a71b6967473b66fe8b65
  Z: 3.0
  valence: 1
  core: 2
  charge: 0.0
  file: /home/modules/software/GPAW-setups/0.9.20000/Li.LDA.gz
  compensation charges: gauss, rc=0.33, lmax=2
  cutoffs: 1.91(filt), 2.55(core),
  valence states:
                energy  radius
    2s(1.00)    -2.874   1.058
    2p(0.00)    -1.126   1.058
    *s          24.338   1.058

  Using partial waves for Li as LCAO basis

Reference energy: -196157.275402

Spin-polarized calculation.
Magnetic moment: 0.000000

Convergence criteria:
  Maximum total energy change: 0.0005 eV / electron
  Maximum integral of absolute density change: 0.0001 electrons
  Maximum integral of absolute eigenstate change: 4e-08 eV^2
  Maximum change in atomic force: 1e-06 eV / Ang
  Maximum number of iterations: 333

Symmetries present (total): 1

  ( 1  0  0)
  ( 0  1  0)
  ( 0  0  1)

144 k-points: 6 x 6 x 4 Monkhorst-Pack grid
144 k-points in the irreducible part of the Brillouin zone
       k-points in crystal coordinates                weights
   0:    -0.41666667   -0.41666667   -0.37500000          1/144
   1:    -0.41666667   -0.41666667   -0.12500000          1/144
   2:    -0.41666667   -0.41666667    0.12500000          1/144
   3:    -0.41666667   -0.41666667    0.37500000          1/144
   4:    -0.41666667   -0.25000000   -0.37500000          1/144
   5:    -0.41666667   -0.25000000   -0.12500000          1/144
   6:    -0.41666667   -0.25000000    0.12500000          1/144
   7:    -0.41666667   -0.25000000    0.37500000          1/144
   8:    -0.41666667   -0.08333333   -0.37500000          1/144
   9:    -0.41666667   -0.08333333   -0.12500000          1/144
          ...
 143:     0.41666667    0.41666667    0.37500000          1/144

Wave functions: Plane wave expansion
  Cutoff energy: 600.000 eV
  Number of coefficients (min, max): 10068, 10125
  Pulay-stress correction: 0.000000 eV/Ang^3 (de/decut=0.000000)
  Using FFTW library
  ScaLapack parameters: grid=1x1, blocksize=None
  Wavefunction extrapolation:
    Improved wavefunction reuse through dual PAW basis

  Fermi-Dirac: width=0.0010 eV

Eigensolver
   Davidson(niter=2, smin=None, normalize=True)

Densities:
  Coarse grid: 60*35*27 grid
  Fine grid: 120*70*54 grid
  Total Charge: 0.000000

Density mixing:
  Method: difference
  Backend: pulay
  Linear mixing parameter: 0.05
  Mixing with 5 old densities
  Damping of long wave oscillations: 50

Hamiltonian:
  XC and Coulomb potentials evaluated on a 120*70*54 grid
  Using the LDA Exchange-Correlation functional

Total number of cores used: 32
Parallelization over k-points: 16
Domain decomposition: 2 x 1 x 1

Number of atoms: 28
Number of atomic orbitals: 148
Number of bands in calculation: 112
Number of valence electrons: 180
Bands to converge: occupied

... initialized

Initializing position-dependent things.

Density initialized from atomic densities
Creating initial wave functions:
  112 bands from LCAO basis set

    /|         OP              |
   / |O            O        O  |
  /  |       O            O  P |
 *   |O    Mn      O           |
 |   |          OLi          O |
 |   .P-O--------------Mn------.
 |  /          Li    O  Mn  O /
 | /Li O           PO        /
 |/       Mn                /
 *Li-----------------------*

Positions:
   0 O     -1.360678   -2.541161   -1.202221    ( 0.0000,  0.0000,  0.0000)
   1 O     -3.121941    2.976855    1.167242    ( 0.0000,  0.0000,  0.0000)
   2 O      2.107533    0.508090    1.540712    ( 0.0000,  0.0000,  0.0000)
   3 O      3.869373   -0.072395   -0.828750    ( 0.0000,  0.0000,  0.0000)
   4 O      2.107821    2.976875    1.530792    ( 0.0000,  0.0000,  0.0000)
   5 O      3.869084   -2.541141   -0.828671    ( 0.0000,  0.0000,  0.0000)
   6 O     -1.360390   -0.072375   -1.202141    ( 0.0000,  0.0000,  0.0000)
   7 O     -3.122230    0.508109    1.167321    ( 0.0000,  0.0000,  0.0000)
   8 O     -4.413461   -1.306992   -0.794251    ( 0.0000,  0.0000,  0.0000)
   9 O     -0.069585    1.742707    1.575662    ( 0.0000,  0.0000,  0.0000)
  10 O      5.160604    1.742707    1.132822    ( 0.0000,  0.0000,  0.0000)
  11 O      0.816728   -1.306992   -1.237091    ( 0.0000,  0.0000,  0.0000)
  12 Mn    -2.570809   -1.307302    0.247161    ( 0.0000,  0.0000,  1.0000)
  13 Mn    -1.912021    1.743016   -2.122906    ( 0.0000,  0.0000, -1.0000)
  14 Mn     3.317952    1.743017    0.091411    ( 0.0000,  0.0000, -1.0000)
  15 Mn     2.659164   -1.307302    2.461478    ( 0.0000,  0.0000,  1.0000)
  16 P     -0.620664   -1.306816   -1.828465    ( 0.0000,  0.0000,  0.0000)
  17 P     -3.862097    1.742530    0.541238    ( 0.0000,  0.0000,  0.0000)
  18 P      1.367807    1.742530    2.167036    ( 0.0000,  0.0000,  0.0000)
  19 P      4.609240   -1.306816   -0.202666    ( 0.0000,  0.0000,  0.0000)
  20 O     -0.646437   -1.306845    1.374751    ( 0.0000,  0.0000,  0.0000)
  21 O     -3.836504    1.742559   -0.995565    ( 0.0000,  0.0000,  0.0000)
  22 O      1.393580    1.742559   -1.036179    ( 0.0000,  0.0000,  0.0000)
  23 O      4.583647   -1.306845    1.334136    ( 0.0000,  0.0000,  0.0000)
  24 Li    -4.856429   -2.832143   -2.200714    ( 0.0000,  0.0000,  0.0000)
  25 Li     0.373571   -2.832143    0.169286    ( 0.0000,  0.0000,  0.0000)
  26 Li    -4.856429    0.217857   -2.200714    ( 0.0000,  0.0000,  0.0000)
  27 Li     0.373571    0.217857    0.169286    ( 0.0000,  0.0000,  0.0000)

Unit cell:
           periodic     x           y           z      points  spacing
  1. axis:    yes   10.460000    0.000000    0.000000    60     0.1743
  2. axis:    yes    0.000000    6.100000    0.000000    35     0.1743
  3. axis:    yes    0.000000    0.000000    4.740000    27     0.1756

  Lengths:  10.460000   6.100000   4.740000
  Angles:   90.000000  90.000000  90.000000

Effective grid spacing dv^(1/3) = 0.1747

                     log10-error:           total        iterations:
           time      wfs    density  force  energy       poisson  magmom
iter:   1  04:39:57                       -231.921523             +0.0000
iter:   2  04:40:37  -0.55  -0.94         -231.723429             +0.0051
iter:   3  04:41:16  -0.72  -0.98         -220.581106             +0.0064
iter:   4  04:41:56  -0.95  -1.20         -218.859793             +0.0021
iter:   5  04:42:35  -1.93  -1.36         -222.095933             +0.0014
iter:   6  04:43:15  -1.99  -1.44         -221.025700             +0.0006
iter:   7  04:43:54  -2.25  -1.68         -224.139462             +0.0004
iter:   8  04:44:34  -1.59  -1.89         -226.178659             +0.0000
iter:   9  04:45:13  -2.79  -1.90         -227.054253             +0.0000
iter:  10  04:45:53  -1.74  -1.86         -226.567127             +0.0000
iter:  11  04:46:32  -2.52  -2.06         -226.562414             +0.0000
iter:  12  04:47:11  -1.58  -2.09         -226.878300             -0.0000
iter:  13  04:47:51  -1.98  -2.21         -226.239016             +0.0000
iter:  14  04:48:30  -2.94  -2.56         -226.250110             +0.0000
iter:  15  04:49:10  -2.56  -2.51         -226.277110             +0.0000
iter:  16  04:49:49  -2.64  -2.63         -226.247309             +0.0000
iter:  17  04:50:29  -3.90  -2.99         -226.231237             +0.0000
iter:  18  04:51:08  -4.14  -3.21         -226.229355             -0.0000
iter:  19  04:51:47  -4.46  -3.26         -226.228724             -0.0000
iter:  20  04:52:27  -5.43  -3.40         -226.228309             -0.0000
iter:  21  04:53:06  -5.42  -3.43         -226.227842             -0.0000
iter:  22  04:53:46  -4.81  -3.47         -226.228353             -0.0000
iter:  23  04:54:25  -5.23  -3.56         -226.227647             -0.0000
iter:  24  04:55:04  -5.88  -3.66         -226.227617             -0.0000
iter:  25  04:55:44  -6.14  -3.68         -226.227650             -0.0000
iter:  26  04:56:23  -5.33  -3.87         -226.227539             -0.0000
iter:  27  04:57:02  -5.69  -3.93         -226.227445             -0.0000
iter:  28  04:57:42  -5.95  -4.28         -226.227490             -0.0000
iter:  29  04:58:21  -6.50  -4.31         -226.227452             -0.0000
iter:  30  04:59:01  -6.58  -4.48         -226.227448             -0.0000
iter:  31  04:59:40  -7.10  -4.59         -226.227450             -0.0000
iter:  32  05:00:30  -7.63  -4.70         -226.227448             -0.0000
iter:  33  05:01:20  -7.98  -4.72    -3.08-226.227447             -0.0000
iter:  34  05:02:10  -7.43  -4.74    -2.41-226.227449             -0.0000
iter:  35  05:03:00  -7.57  -4.85    -2.51-226.227447             +0.0000
iter:  36  05:03:50  -8.85  -5.10    -3.16-226.227447             +0.0000
iter:  37  05:04:40  -8.34  -5.19    -2.94-226.227447             +0.0000
iter:  38  05:05:30  -8.75  -5.31    -3.12-226.227447             +0.0000
iter:  39  05:06:20  -8.49  -5.45    -3.23-226.227447             +0.0000
iter:  40  05:07:10  -9.03  -5.78    -3.55-226.227447             +0.0000
iter:  41  05:08:00 -10.08  -5.92    -4.03-226.227447             +0.0000
iter:  42  05:08:50 -10.28  -5.97    -3.92-226.227447             +0.0000
iter:  43  05:09:40 -10.14  -6.09    -4.23-226.227447             +0.0000
iter:  44  05:10:30 -11.07  -6.27    -4.91-226.227447             +0.0000
iter:  45  05:11:20 -10.59  -6.30    -4.03-226.227447             +0.0000
iter:  46  05:12:10 -11.64  -6.47    -4.61-226.227447             +0.0000
iter:  47  05:13:00 -11.80  -6.56    -4.69-226.227447             +0.0000
iter:  48  05:13:50 -11.11  -6.64    -4.43-226.227447             +0.0000
iter:  49  05:14:40 -11.76  -6.73    -4.91-226.227447             +0.0000
iter:  50  05:15:30 -11.42  -6.76    -4.56-226.227447             +0.0000
iter:  51  05:16:20 -12.12  -6.86    -4.71-226.227447             +0.0000
iter:  52  05:17:10 -12.63  -6.95    -5.34-226.227447             +0.0000
iter:  53  05:18:00 -12.43  -6.99    -4.86-226.227447             +0.0000
iter:  54  05:18:50 -12.43  -7.29    -4.99-226.227447             +0.0000
iter:  55  05:19:40 -12.79  -7.54    -5.51-226.227447             +0.0000
iter:  56  05:20:30 -13.01  -7.62    -5.40-226.227447             +0.0000
iter:  57  05:21:20 -12.99  -7.59    -5.21-226.227447             +0.0000
iter:  58  05:22:09 -14.35  -7.88    -6.07-226.227447             +0.0000

Converged after 58 iterations.

Dipole moment: (10.670636, 1.411006, -6.265143) |e|*Ang

Total magnetic moment: (0.000000, 0.000000, 0.000000)
Local magnetic moments:
   0 O  ( 0.000000,  0.000000, -0.000529)
   1 O  ( 0.000000,  0.000000,  0.000530)
   2 O  ( 0.000000,  0.000000,  0.000532)
   3 O  ( 0.000000,  0.000000, -0.000422)
   4 O  ( 0.000000,  0.000000,  0.000236)
   5 O  ( 0.000000,  0.000000, -0.000578)
   6 O  ( 0.000000,  0.000000, -0.000551)
   7 O  ( 0.000000,  0.000000,  0.000546)
   8 O  ( 0.000000,  0.000000,  0.028700)
   9 O  ( 0.000000,  0.000000, -0.028780)
  10 O  ( 0.000000,  0.000000, -0.028703)
  11 O  ( 0.000000,  0.000000,  0.028649)
  12 Mn ( 0.000000,  0.000000,  4.448153)
  13 Mn ( 0.000000,  0.000000, -4.448248)
  14 Mn ( 0.000000,  0.000000, -4.447718)
  15 Mn ( 0.000000,  0.000000,  4.448573)
  16 P  ( 0.000000,  0.000000,  0.001550)
  17 P  ( 0.000000,  0.000000, -0.001555)
  18 P  ( 0.000000,  0.000000, -0.001727)
  19 P  ( 0.000000,  0.000000,  0.001537)
  20 O  ( 0.000000,  0.000000,  0.025307)
  21 O  ( 0.000000,  0.000000, -0.025309)
  22 O  ( 0.000000,  0.000000, -0.025294)
  23 O  ( 0.000000,  0.000000,  0.025291)
  24 Li ( 0.000000,  0.000000,  0.000001)
  25 Li ( 0.000000,  0.000000, -0.000007)
  26 Li ( 0.000000,  0.000000, -0.000001)
  27 Li ( 0.000000,  0.000000, -0.000000)

Energy contributions relative to reference atoms: (reference = -196157.275402)

Kinetic:       +217.106716
Potential:     -195.049723
External:        +0.000000
XC:            -250.326419
Entropy (-ST):   -0.000000
Local:           +2.041979
Free energy:   -226.227447
Extrapolated:  -226.227447

Spin contamination: 9.560283 electrons
Showing only first 2 kpts
                      Up                     Down
 Kpt  Band  Eigenvalues  Occupancy  Eigenvalues  Occupancy
  0    88      5.10811    0.00694      5.11163    0.00694
  0    89      5.13307    0.00694      5.13727    0.00694
  0    90      7.29095    0.00000      7.28883    0.00000
  0    91      7.30896    0.00000      7.30657    0.00000

  1    88      5.13404    0.00694      5.13751    0.00694
  1    89      5.16371    0.00694      5.16794    0.00694
  1    90      7.23321    0.00000      7.23157    0.00000
  1    91      7.24603    0.00000      7.24384    0.00000

Fermi level: 6.46848

Gap: 1.970 eV
Transition (v -> c):
  (s=1, k=49, n=89, [-0.08, -0.42, -0.12]) -> (s=1, k=61, n=90, [-0.08, 0.08, -0.12])
Writing to born-0.01-4z-.gpw (mode='all')