User:   madkru@g064.nifl.fysik.dtu.dk
Date:   Mon Mar 22 10:40:42 2021
Arch:   x86_64
Pid:    60512
Python: 3.7.4
gpaw:   /home/niflheim/madkru/venv_folder/gpaw/gpaw (d0d1ca1c71)
_gpaw:  /home/niflheim/madkru/venv_folder/gpaw/build/lib.linux-x86_64-sandybridge-3.7/
        _gpaw.cpython-37m-x86_64-linux-gnu.so (4fd39e8b1e)
ase:    /home/niflheim/madkru/venv_folder/ase/ase (version 3.21.0b1-7e6c206a91)
numpy:  /home/niflheim/madkru/venv_folder/lib/python3.7/site-packages/numpy (version 1.19.4)
scipy:  /home/niflheim/madkru/venv_folder/lib/python3.7/site-packages/scipy (version 1.5.4)
units:  Angstrom and eV
cores: 32
OMP_NUM_THREADS: 1

Input parameters:
  convergence: {bands: occupied,
                density: 0.0001,
                eigenstates: 4e-08,
                energy: 0.0005,
                forces: 1e-06}
  kpts: [6 6 4]
  mode: {ecut: 600.0,
         gammacentered: False,
         name: pw}
  occupations: {fixmagmom: False,
                name: fermi-dirac,
                width: 0.001}
  symmetry: {point_group: False,
             time_reversal: False}

System changes: positions, numbers, cell, pbc, initial_charges, initial_magmoms

Initialize ...

O-setup:
  name: Oxygen
  id: 9b9d51c344dea68c822856295a461509
  Z: 8.0
  valence: 6
  core: 2
  charge: 0.0
  file: /home/modules/software/GPAW-setups/0.9.20000/O.LDA.gz
  compensation charges: gauss, rc=0.21, lmax=2
  cutoffs: 1.17(filt), 0.83(core),
  valence states:
                energy  radius
    2s(2.00)   -23.752   0.688
    2p(4.00)    -9.195   0.598
    *s           3.459   0.688
    *p          18.016   0.598
    *d           0.000   0.619

  Using partial waves for O as LCAO basis

Mn-setup:
  name: Manganese
  id: 0d715a8018be061a6e9ea6f2d364ac92
  Z: 25.0
  valence: 15
  core: 10
  charge: 0.0
  file: /home/modules/software/GPAW-setups/0.9.20000/Mn.LDA.gz
  compensation charges: gauss, rc=0.38, lmax=2
  cutoffs: 2.14(filt), 0.86(core),
  valence states:
                energy  radius
    3s(2.00)   -85.387   1.275
    4s(2.00)    -5.282   1.275
    3p(6.00)   -54.493   1.281
    4p(0.00)    -1.471   1.281
    3d(5.00)    -7.009   1.138
    *d          20.203   1.138

[...]

P-setup:
  name: Phosphorus
  id: a5561c299094968922a179ab894d2e2d
  Z: 15.0
  valence: 5
  core: 10
  charge: 0.0
  file: /home/modules/software/GPAW-setups/0.9.20000/P.LDA.gz
  compensation charges: gauss, rc=0.30, lmax=2
  cutoffs: 1.69(filt), 1.81(core),
  valence states:
                energy  radius
    3s(2.00)   -14.015   0.953
    3p(3.00)    -5.596   0.953
    *s          13.197   0.953
    *p          21.615   0.953
    *d           0.000   0.953

[...]

Li-setup:
  name: Lithium
  id: b73562207f97a71b6967473b66fe8b65
  Z: 3.0
  valence: 1
  core: 2
  charge: 0.0
  file: /home/modules/software/GPAW-setups/0.9.20000/Li.LDA.gz
  compensation charges: gauss, rc=0.33, lmax=2
  cutoffs: 1.91(filt), 2.55(core),
  valence states:
                energy  radius
    2s(1.00)    -2.874   1.058
    2p(0.00)    -1.126   1.058
    *s          24.338   1.058

  Using partial waves for Li as LCAO basis

Reference energy: -196157.275402

Spin-polarized calculation.
Magnetic moment: 0.000000

Convergence criteria:
  Maximum total energy change: 0.0005 eV / electron
  Maximum integral of absolute density change: 0.0001 electrons
  Maximum integral of absolute eigenstate change: 4e-08 eV^2
  Maximum change in atomic force: 1e-06 eV / Ang
  Maximum number of iterations: 333

Symmetries present (total): 1

  ( 1  0  0)
  ( 0  1  0)
  ( 0  0  1)

144 k-points: 6 x 6 x 4 Monkhorst-Pack grid
144 k-points in the irreducible part of the Brillouin zone
       k-points in crystal coordinates                weights
   0:    -0.41666667   -0.41666667   -0.37500000          1/144
   1:    -0.41666667   -0.41666667   -0.12500000          1/144
   2:    -0.41666667   -0.41666667    0.12500000          1/144
   3:    -0.41666667   -0.41666667    0.37500000          1/144
   4:    -0.41666667   -0.25000000   -0.37500000          1/144
   5:    -0.41666667   -0.25000000   -0.12500000          1/144
   6:    -0.41666667   -0.25000000    0.12500000          1/144
   7:    -0.41666667   -0.25000000    0.37500000          1/144
   8:    -0.41666667   -0.08333333   -0.37500000          1/144
   9:    -0.41666667   -0.08333333   -0.12500000          1/144
          ...
 143:     0.41666667    0.41666667    0.37500000          1/144

Wave functions: Plane wave expansion
  Cutoff energy: 600.000 eV
  Number of coefficients (min, max): 10068, 10125
  Pulay-stress correction: 0.000000 eV/Ang^3 (de/decut=0.000000)
  Using FFTW library
  ScaLapack parameters: grid=1x1, blocksize=None
  Wavefunction extrapolation:
    Improved wavefunction reuse through dual PAW basis

  Fermi-Dirac: width=0.0010 eV

Eigensolver
   Davidson(niter=2, smin=None, normalize=True)

Densities:
  Coarse grid: 60*35*27 grid
  Fine grid: 120*70*54 grid
  Total Charge: 0.000000

Density mixing:
  Method: difference
  Backend: pulay
  Linear mixing parameter: 0.05
  Mixing with 5 old densities
  Damping of long wave oscillations: 50

Hamiltonian:
  XC and Coulomb potentials evaluated on a 120*70*54 grid
  Using the LDA Exchange-Correlation functional

Total number of cores used: 32
Parallelization over k-points: 16
Domain decomposition: 2 x 1 x 1

Number of atoms: 28
Number of atomic orbitals: 148
Number of bands in calculation: 112
Number of valence electrons: 180
Bands to converge: occupied

... initialized

Initializing position-dependent things.

Density initialized from atomic densities
Creating initial wave functions:
  112 bands from LCAO basis set

    /|         OP              |
   / |O            O        O  |
  /  |       O            O  P |
 *   |O    Mn      O           |
 |   |          OLi          O |
 |   .P-O--------------Mn------.
 |  /          Li    O  Mn  O /
 | /Li O           PO        /
 |/       Mn                /
 *Li-----------------------*

Positions:
   0 O     -1.360678   -2.541161   -1.202221    ( 0.0000,  0.0000,  0.0000)
   1 O     -3.121941    2.976855    1.167242    ( 0.0000,  0.0000,  0.0000)
   2 O      2.107533    0.508090    1.540712    ( 0.0000,  0.0000,  0.0000)
   3 O      3.869373   -0.072395   -0.828750    ( 0.0000,  0.0000,  0.0000)
   4 O      2.107821    2.976875    1.540792    ( 0.0000,  0.0000,  0.0000)
   5 O      3.869084   -2.541141   -0.818671    ( 0.0000,  0.0000,  0.0000)
   6 O     -1.360390   -0.072375   -1.202141    ( 0.0000,  0.0000,  0.0000)
   7 O     -3.122230    0.508109    1.167321    ( 0.0000,  0.0000,  0.0000)
   8 O     -4.413461   -1.306992   -0.794251    ( 0.0000,  0.0000,  0.0000)
   9 O     -0.069585    1.742707    1.575662    ( 0.0000,  0.0000,  0.0000)
  10 O      5.160604    1.742707    1.132822    ( 0.0000,  0.0000,  0.0000)
  11 O      0.816728   -1.306992   -1.237091    ( 0.0000,  0.0000,  0.0000)
  12 Mn    -2.570809   -1.307302    0.247161    ( 0.0000,  0.0000,  1.0000)
  13 Mn    -1.912021    1.743016   -2.122906    ( 0.0000,  0.0000, -1.0000)
  14 Mn     3.317952    1.743017    0.091411    ( 0.0000,  0.0000, -1.0000)
  15 Mn     2.659164   -1.307302    2.461478    ( 0.0000,  0.0000,  1.0000)
  16 P     -0.620664   -1.306816   -1.828465    ( 0.0000,  0.0000,  0.0000)
  17 P     -3.862097    1.742530    0.541238    ( 0.0000,  0.0000,  0.0000)
  18 P      1.367807    1.742530    2.167036    ( 0.0000,  0.0000,  0.0000)
  19 P      4.609240   -1.306816   -0.202666    ( 0.0000,  0.0000,  0.0000)
  20 O     -0.646437   -1.306845    1.374751    ( 0.0000,  0.0000,  0.0000)
  21 O     -3.836504    1.742559   -0.995565    ( 0.0000,  0.0000,  0.0000)
  22 O      1.393580    1.742559   -1.036179    ( 0.0000,  0.0000,  0.0000)
  23 O      4.583647   -1.306845    1.334136    ( 0.0000,  0.0000,  0.0000)
  24 Li    -4.856429   -2.832143   -2.200714    ( 0.0000,  0.0000,  0.0000)
  25 Li     0.373571   -2.832143    0.169286    ( 0.0000,  0.0000,  0.0000)
  26 Li    -4.856429    0.217857   -2.200714    ( 0.0000,  0.0000,  0.0000)
  27 Li     0.373571    0.217857    0.169286    ( 0.0000,  0.0000,  0.0000)

Unit cell:
           periodic     x           y           z      points  spacing
  1. axis:    yes   10.460000    0.000000    0.000000    60     0.1743
  2. axis:    yes    0.000000    6.100000    0.000000    35     0.1743
  3. axis:    yes    0.000000    0.000000    4.740000    27     0.1756

  Lengths:  10.460000   6.100000   4.740000
  Angles:   90.000000  90.000000  90.000000

Effective grid spacing dv^(1/3) = 0.1747

                     log10-error:           total        iterations:
           time      wfs    density  force  energy       poisson  magmom
iter:   1  10:43:44                       -231.918676             +0.0000
iter:   2  10:44:23  -0.55  -0.94         -231.737973             +0.0052
iter:   3  10:45:03  -0.72  -0.98         -220.590938             +0.0065
iter:   4  10:45:42  -0.95  -1.20         -218.878510             +0.0021
iter:   5  10:46:22  -1.93  -1.36         -221.986788             +0.0014
iter:   6  10:47:01  -1.99  -1.45         -221.046560             +0.0006
iter:   7  10:47:41  -2.25  -1.68         -224.396504             +0.0004
iter:   8  10:48:21  -1.60  -1.89         -226.267095             +0.0000
iter:   9  10:49:00  -2.31  -1.87         -227.560589             +0.0000
iter:  10  10:49:39  -1.56  -1.80         -226.496462             +0.0000
iter:  11  10:50:19  -2.44  -2.14         -226.481791             +0.0000
iter:  12  10:50:58  -2.50  -2.19         -226.543991             -0.0000
iter:  13  10:51:38  -1.53  -2.20         -226.738252             -0.0000
iter:  14  10:52:17  -2.16  -2.27         -226.236325             -0.0000
iter:  15  10:52:56  -3.22  -2.91         -226.235128             -0.0000
iter:  16  10:53:36  -3.37  -2.98         -226.247347             +0.0000
iter:  17  10:54:15  -3.28  -2.90         -226.227702             +0.0000
iter:  18  10:54:55  -4.08  -3.16         -226.230234             +0.0000
iter:  19  10:55:34  -3.94  -3.16         -226.229223             +0.0000
iter:  20  10:56:13  -3.96  -3.32         -226.229258             +0.0000
iter:  21  10:56:53  -5.10  -3.35         -226.228489             +0.0000
iter:  22  10:57:32  -4.33  -3.55         -226.227879             +0.0000
iter:  23  10:58:12  -5.20  -3.81         -226.227453             +0.0000
iter:  24  10:58:51  -6.57  -4.14         -226.227459             +0.0000
iter:  25  10:59:31  -6.43  -4.19         -226.227468             -0.0000
iter:  26  11:00:10  -6.48  -4.33         -226.227460             -0.0000
iter:  27  11:00:49  -6.76  -4.37         -226.227465             -0.0000
iter:  28  11:01:39  -7.96  -4.47         -226.227462             -0.0000
iter:  29  11:02:18  -6.57  -4.50         -226.227455             +0.0000
iter:  30  11:03:08  -7.81  -4.57    -2.25-226.227454             -0.0000
iter:  31  11:03:48  -7.34  -4.61         -226.227455             -0.0000
iter:  32  11:04:38  -8.31  -4.68    -2.60-226.227454             -0.0000
iter:  33  11:05:17  -7.18  -4.71         -226.227454             -0.0000
iter:  34  11:06:07  -7.70  -5.04    -2.52-226.227453             -0.0000
iter:  35  11:06:57  -8.93  -5.25    -3.24-226.227453             -0.0000
iter:  36  11:07:47  -8.72  -5.41    -3.21-226.227453             -0.0000
iter:  37  11:08:37  -9.53  -5.59    -3.60-226.227453             -0.0000
iter:  38  11:09:27  -9.66  -5.66    -3.45-226.227453             -0.0000
iter:  39  11:10:17 -10.12  -5.83    -3.62-226.227453             -0.0000
iter:  40  11:11:07 -10.08  -5.94    -3.95-226.227453             -0.0000
iter:  41  11:11:57 -10.00  -5.99    -4.05-226.227453             -0.0000
iter:  42  11:12:47 -10.65  -6.07    -4.08-226.227453             -0.0000
iter:  43  11:13:37 -10.90  -6.10    -4.52-226.227453             +0.0000
iter:  44  11:14:27 -10.82  -6.13    -3.89-226.227453             +0.0000
iter:  45  11:15:17 -11.22  -6.32    -4.38-226.227453             -0.0000
iter:  46  11:16:07 -10.92  -6.38    -4.13-226.227453             +0.0000
iter:  47  11:16:58 -11.44  -6.64    -4.48-226.227453             -0.0000
iter:  48  11:17:48 -11.14  -6.78    -4.51-226.227453             -0.0000
iter:  49  11:18:38 -12.33  -6.99    -5.14-226.227453             -0.0000
iter:  50  11:19:28 -12.03  -7.07    -4.98-226.227453             -0.0000
iter:  51  11:20:18 -11.61  -7.20    -4.81-226.227453             -0.0000
iter:  52  11:21:08 -12.07  -7.27    -4.90-226.227453             -0.0000
iter:  53  11:21:58 -13.23  -7.60    -5.88-226.227453             -0.0000
iter:  54  11:22:48 -13.07  -7.64    -5.55-226.227453             -0.0000
iter:  55  11:23:38 -13.53  -7.77    -5.66-226.227453             -0.0000
iter:  56  11:24:28 -14.24  -7.85    -5.84-226.227453             -0.0000
iter:  57  11:25:18 -14.44  -7.91    -5.72-226.227453             -0.0000
iter:  58  11:26:08 -13.71  -8.00    -5.68-226.227453             -0.0000
iter:  59  11:26:58 -14.44  -8.13    -5.90-226.227453             -0.0000
iter:  60  11:27:48 -15.28  -8.20    -6.51-226.227453             -0.0000

Converged after 60 iterations.

Dipole moment: (10.670695, 1.411147, -6.240074) |e|*Ang

Total magnetic moment: (0.000000, 0.000000, -0.000000)
Local magnetic moments:
   0 O  ( 0.000000,  0.000000, -0.000522)
   1 O  ( 0.000000,  0.000000,  0.000523)
   2 O  ( 0.000000,  0.000000,  0.000669)
   3 O  ( 0.000000,  0.000000, -0.000559)
   4 O  ( 0.000000,  0.000000,  0.000473)
   5 O  ( 0.000000,  0.000000, -0.000817)
   6 O  ( 0.000000,  0.000000, -0.000546)
   7 O  ( 0.000000,  0.000000,  0.000540)
   8 O  ( 0.000000,  0.000000,  0.028614)
   9 O  ( 0.000000,  0.000000, -0.028694)
  10 O  ( 0.000000,  0.000000, -0.028745)
  11 O  ( 0.000000,  0.000000,  0.028691)
  12 Mn ( 0.000000,  0.000000,  4.448154)
  13 Mn ( 0.000000,  0.000000, -4.448249)
  14 Mn ( 0.000000,  0.000000, -4.447816)
  15 Mn ( 0.000000,  0.000000,  4.448661)
  16 P  ( 0.000000,  0.000000,  0.001546)
  17 P  ( 0.000000,  0.000000, -0.001551)
  18 P  ( 0.000000,  0.000000, -0.001564)
  19 P  ( 0.000000,  0.000000,  0.001375)
  20 O  ( 0.000000,  0.000000,  0.025311)
  21 O  ( 0.000000,  0.000000, -0.025314)
  22 O  ( 0.000000,  0.000000, -0.025330)
  23 O  ( 0.000000,  0.000000,  0.025327)
  24 Li ( 0.000000,  0.000000, -0.000006)
  25 Li ( 0.000000,  0.000000,  0.000001)
  26 Li ( 0.000000,  0.000000, -0.000000)
  27 Li ( 0.000000,  0.000000, -0.000001)

Energy contributions relative to reference atoms: (reference = -196157.275402)

Kinetic:       +217.599817
Potential:     -195.426527
External:        +0.000000
XC:            -250.441302
Entropy (-ST):   -0.000000
Local:           +2.040558
Free energy:   -226.227453
Extrapolated:  -226.227453

Spin contamination: 9.560535 electrons
Showing only first 2 kpts
                      Up                     Down
 Kpt  Band  Eigenvalues  Occupancy  Eigenvalues  Occupancy
  0    88      5.10707    0.00694      5.11118    0.00694
  0    89      5.13281    0.00694      5.13616    0.00694
  0    90      7.28845    0.00000      7.28571    0.00000
  0    91      7.30613    0.00000      7.30414    0.00000

  1    88      5.13268    0.00694      5.13684    0.00694
  1    89      5.16301    0.00694      5.16629    0.00694
  1    90      7.23128    0.00000      7.22890    0.00000
  1    91      7.24346    0.00000      7.24185    0.00000

Fermi level: 6.45563

Gap: 1.969 eV
Transition (v -> c):
  (s=1, k=94, n=89, [0.08, 0.42, 0.12]) -> (s=1, k=58, n=90, [-0.08, -0.08, 0.12])
Writing to born-0.01-5z+.gpw (mode='all')