User:   madkru@g064.nifl.fysik.dtu.dk
Date:   Mon Mar 22 12:34:49 2021
Arch:   x86_64
Pid:    60512
Python: 3.7.4
gpaw:   /home/niflheim/madkru/venv_folder/gpaw/gpaw (d0d1ca1c71)
_gpaw:  /home/niflheim/madkru/venv_folder/gpaw/build/lib.linux-x86_64-sandybridge-3.7/
        _gpaw.cpython-37m-x86_64-linux-gnu.so (4fd39e8b1e)
ase:    /home/niflheim/madkru/venv_folder/ase/ase (version 3.21.0b1-7e6c206a91)
numpy:  /home/niflheim/madkru/venv_folder/lib/python3.7/site-packages/numpy (version 1.19.4)
scipy:  /home/niflheim/madkru/venv_folder/lib/python3.7/site-packages/scipy (version 1.5.4)
units:  Angstrom and eV
cores: 32
OMP_NUM_THREADS: 1

Input parameters:
  convergence: {bands: occupied,
                density: 0.0001,
                eigenstates: 4e-08,
                energy: 0.0005,
                forces: 1e-06}
  kpts: [6 6 4]
  mode: {ecut: 600.0,
         gammacentered: False,
         name: pw}
  occupations: {fixmagmom: False,
                name: fermi-dirac,
                width: 0.001}
  symmetry: {point_group: False,
             time_reversal: False}

System changes: positions, numbers, cell, pbc, initial_charges, initial_magmoms

Initialize ...

O-setup:
  name: Oxygen
  id: 9b9d51c344dea68c822856295a461509
  Z: 8.0
  valence: 6
  core: 2
  charge: 0.0
  file: /home/modules/software/GPAW-setups/0.9.20000/O.LDA.gz
  compensation charges: gauss, rc=0.21, lmax=2
  cutoffs: 1.17(filt), 0.83(core),
  valence states:
                energy  radius
    2s(2.00)   -23.752   0.688
    2p(4.00)    -9.195   0.598
    *s           3.459   0.688
    *p          18.016   0.598
    *d           0.000   0.619

  Using partial waves for O as LCAO basis

Mn-setup:
  name: Manganese
  id: 0d715a8018be061a6e9ea6f2d364ac92
  Z: 25.0
  valence: 15
  core: 10
  charge: 0.0
  file: /home/modules/software/GPAW-setups/0.9.20000/Mn.LDA.gz
  compensation charges: gauss, rc=0.38, lmax=2
  cutoffs: 2.14(filt), 0.86(core),
  valence states:
                energy  radius
    3s(2.00)   -85.387   1.275
    4s(2.00)    -5.282   1.275
    3p(6.00)   -54.493   1.281
    4p(0.00)    -1.471   1.281
    3d(5.00)    -7.009   1.138
    *d          20.203   1.138

[...]

P-setup:
  name: Phosphorus
  id: a5561c299094968922a179ab894d2e2d
  Z: 15.0
  valence: 5
  core: 10
  charge: 0.0
  file: /home/modules/software/GPAW-setups/0.9.20000/P.LDA.gz
  compensation charges: gauss, rc=0.30, lmax=2
  cutoffs: 1.69(filt), 1.81(core),
  valence states:
                energy  radius
    3s(2.00)   -14.015   0.953
    3p(3.00)    -5.596   0.953
    *s          13.197   0.953
    *p          21.615   0.953
    *d           0.000   0.953

[...]

Li-setup:
  name: Lithium
  id: b73562207f97a71b6967473b66fe8b65
  Z: 3.0
  valence: 1
  core: 2
  charge: 0.0
  file: /home/modules/software/GPAW-setups/0.9.20000/Li.LDA.gz
  compensation charges: gauss, rc=0.33, lmax=2
  cutoffs: 1.91(filt), 2.55(core),
  valence states:
                energy  radius
    2s(1.00)    -2.874   1.058
    2p(0.00)    -1.126   1.058
    *s          24.338   1.058

  Using partial waves for Li as LCAO basis

Reference energy: -196157.275402

Spin-polarized calculation.
Magnetic moment: 0.000000

Convergence criteria:
  Maximum total energy change: 0.0005 eV / electron
  Maximum integral of absolute density change: 0.0001 electrons
  Maximum integral of absolute eigenstate change: 4e-08 eV^2
  Maximum change in atomic force: 1e-06 eV / Ang
  Maximum number of iterations: 333

Symmetries present (total): 1

  ( 1  0  0)
  ( 0  1  0)
  ( 0  0  1)

144 k-points: 6 x 6 x 4 Monkhorst-Pack grid
144 k-points in the irreducible part of the Brillouin zone
       k-points in crystal coordinates                weights
   0:    -0.41666667   -0.41666667   -0.37500000          1/144
   1:    -0.41666667   -0.41666667   -0.12500000          1/144
   2:    -0.41666667   -0.41666667    0.12500000          1/144
   3:    -0.41666667   -0.41666667    0.37500000          1/144
   4:    -0.41666667   -0.25000000   -0.37500000          1/144
   5:    -0.41666667   -0.25000000   -0.12500000          1/144
   6:    -0.41666667   -0.25000000    0.12500000          1/144
   7:    -0.41666667   -0.25000000    0.37500000          1/144
   8:    -0.41666667   -0.08333333   -0.37500000          1/144
   9:    -0.41666667   -0.08333333   -0.12500000          1/144
          ...
 143:     0.41666667    0.41666667    0.37500000          1/144

Wave functions: Plane wave expansion
  Cutoff energy: 600.000 eV
  Number of coefficients (min, max): 10068, 10125
  Pulay-stress correction: 0.000000 eV/Ang^3 (de/decut=0.000000)
  Using FFTW library
  ScaLapack parameters: grid=1x1, blocksize=None
  Wavefunction extrapolation:
    Improved wavefunction reuse through dual PAW basis

  Fermi-Dirac: width=0.0010 eV

Eigensolver
   Davidson(niter=2, smin=None, normalize=True)

Densities:
  Coarse grid: 60*35*27 grid
  Fine grid: 120*70*54 grid
  Total Charge: 0.000000

Density mixing:
  Method: difference
  Backend: pulay
  Linear mixing parameter: 0.05
  Mixing with 5 old densities
  Damping of long wave oscillations: 50

Hamiltonian:
  XC and Coulomb potentials evaluated on a 120*70*54 grid
  Using the LDA Exchange-Correlation functional

Total number of cores used: 32
Parallelization over k-points: 16
Domain decomposition: 2 x 1 x 1

Number of atoms: 28
Number of atomic orbitals: 148
Number of bands in calculation: 112
Number of valence electrons: 180
Bands to converge: occupied

... initialized

Initializing position-dependent things.

Density initialized from atomic densities
Creating initial wave functions:
  112 bands from LCAO basis set

    /|         OP              |
   / |O            O        O  |
  /  |       O            O  P |
 *   |O    Mn      O           |
 |   |          OLi          O |
 |   .P-O--------------Mn------.
 |  /          Li    O  Mn  O /
 | /Li O           PO        /
 |/       Mn                /
 *Li-----------------------*

Positions:
   0 O     -1.360678   -2.541161   -1.202221    ( 0.0000,  0.0000,  0.0000)
   1 O     -3.121941    2.976855    1.167242    ( 0.0000,  0.0000,  0.0000)
   2 O      2.107533    0.508090    1.540712    ( 0.0000,  0.0000,  0.0000)
   3 O      3.869373   -0.072395   -0.828750    ( 0.0000,  0.0000,  0.0000)
   4 O      2.107821    2.976875    1.540792    ( 0.0000,  0.0000,  0.0000)
   5 O      3.869084   -2.541141   -0.828671    ( 0.0000,  0.0000,  0.0000)
   6 O     -1.350390   -0.072375   -1.202141    ( 0.0000,  0.0000,  0.0000)
   7 O     -3.122230    0.508109    1.167321    ( 0.0000,  0.0000,  0.0000)
   8 O     -4.413461   -1.306992   -0.794251    ( 0.0000,  0.0000,  0.0000)
   9 O     -0.069585    1.742707    1.575662    ( 0.0000,  0.0000,  0.0000)
  10 O      5.160604    1.742707    1.132822    ( 0.0000,  0.0000,  0.0000)
  11 O      0.816728   -1.306992   -1.237091    ( 0.0000,  0.0000,  0.0000)
  12 Mn    -2.570809   -1.307302    0.247161    ( 0.0000,  0.0000,  1.0000)
  13 Mn    -1.912021    1.743016   -2.122906    ( 0.0000,  0.0000, -1.0000)
  14 Mn     3.317952    1.743017    0.091411    ( 0.0000,  0.0000, -1.0000)
  15 Mn     2.659164   -1.307302    2.461478    ( 0.0000,  0.0000,  1.0000)
  16 P     -0.620664   -1.306816   -1.828465    ( 0.0000,  0.0000,  0.0000)
  17 P     -3.862097    1.742530    0.541238    ( 0.0000,  0.0000,  0.0000)
  18 P      1.367807    1.742530    2.167036    ( 0.0000,  0.0000,  0.0000)
  19 P      4.609240   -1.306816   -0.202666    ( 0.0000,  0.0000,  0.0000)
  20 O     -0.646437   -1.306845    1.374751    ( 0.0000,  0.0000,  0.0000)
  21 O     -3.836504    1.742559   -0.995565    ( 0.0000,  0.0000,  0.0000)
  22 O      1.393580    1.742559   -1.036179    ( 0.0000,  0.0000,  0.0000)
  23 O      4.583647   -1.306845    1.334136    ( 0.0000,  0.0000,  0.0000)
  24 Li    -4.856429   -2.832143   -2.200714    ( 0.0000,  0.0000,  0.0000)
  25 Li     0.373571   -2.832143    0.169286    ( 0.0000,  0.0000,  0.0000)
  26 Li    -4.856429    0.217857   -2.200714    ( 0.0000,  0.0000,  0.0000)
  27 Li     0.373571    0.217857    0.169286    ( 0.0000,  0.0000,  0.0000)

Unit cell:
           periodic     x           y           z      points  spacing
  1. axis:    yes   10.460000    0.000000    0.000000    60     0.1743
  2. axis:    yes    0.000000    6.100000    0.000000    35     0.1743
  3. axis:    yes    0.000000    0.000000    4.740000    27     0.1756

  Lengths:  10.460000   6.100000   4.740000
  Angles:   90.000000  90.000000  90.000000

Effective grid spacing dv^(1/3) = 0.1747

                     log10-error:           total        iterations:
           time      wfs    density  force  energy       poisson  magmom
iter:   1  12:37:48                       -231.921239             +0.0000
iter:   2  12:38:27  -0.55  -0.94         -231.746193             +0.0002
iter:   3  12:39:07  -0.72  -0.98         -220.583396             +0.0002
iter:   4  12:39:46  -0.96  -1.20         -218.865476             +0.0001
iter:   5  12:40:26  -1.93  -1.36         -220.998696             +0.0001
iter:   6  12:41:05  -1.96  -1.51         -219.873828             +0.2304
iter:   7  12:41:44  -2.26  -1.66         -221.298595             -0.1435
iter:   8  12:42:24  -2.72  -1.92         -219.318365             -0.2040
iter:   9  12:43:03  -2.43  -1.97         -221.709268             -0.0777
iter:  10  12:43:42  -2.32  -1.99         -224.626513             -0.1733
iter:  11  12:44:22  -2.90  -1.90         -225.733506             -0.0915
iter:  12  12:45:01  -2.56  -1.87         -227.137265             +0.0158
iter:  13  12:45:40  -3.39  -1.87         -227.229064             +0.0055
iter:  14  12:46:20  -3.08  -1.89         -227.071731             +0.0002
iter:  15  12:46:59  -1.77  -1.91         -226.798828             +0.0005
iter:  16  12:47:38  -2.01  -2.10         -226.545346             +0.0000
iter:  17  12:48:18  -2.71  -2.20         -226.506203             +0.0001
iter:  18  12:48:57  -2.39  -2.28         -226.334146             +0.0000
iter:  19  12:49:37  -2.17  -2.34         -226.380613             +0.0000
iter:  20  12:50:16  -2.56  -2.48         -226.241768             +0.0000
iter:  21  12:50:55  -3.51  -2.86         -226.247296             +0.0000
iter:  22  12:51:35  -3.19  -2.90         -226.238638             -0.0000
iter:  23  12:52:14  -4.07  -2.98         -226.233024             +0.0000
iter:  24  12:52:54  -4.60  -3.11         -226.230829             +0.0000
iter:  25  12:53:33  -4.72  -3.18         -226.229845             +0.0000
iter:  26  12:54:12  -4.33  -3.23         -226.228583             +0.0000
iter:  27  12:54:52  -5.18  -3.28         -226.228552             +0.0000
iter:  28  12:55:31  -4.33  -3.32         -226.228434             +0.0000
iter:  29  12:56:11  -4.57  -3.42         -226.228762             +0.0000
iter:  30  12:56:50  -5.92  -3.57         -226.228252             +0.0000
iter:  31  12:57:30  -4.45  -3.62         -226.227695             +0.0000
iter:  32  12:58:09  -5.57  -3.74         -226.227423             +0.0000
iter:  33  12:58:49  -5.77  -3.84         -226.227450             +0.0000
iter:  34  12:59:28  -6.20  -3.94         -226.227387             +0.0000
iter:  35  13:00:07  -6.56  -4.04         -226.227370             +0.0000
iter:  36  13:00:47  -6.01  -4.07         -226.227435             +0.0000
iter:  37  13:01:26  -6.79  -4.20         -226.227395             +0.0000
iter:  38  13:02:06  -6.63  -4.27         -226.227370             -0.0000
iter:  39  13:02:45  -7.05  -4.41         -226.227366             -0.0000
iter:  40  13:03:24  -6.60  -4.52         -226.227363             -0.0000
iter:  41  13:04:14  -7.55  -4.59         -226.227363             -0.0000
iter:  42  13:05:04  -7.59  -4.60    -2.49-226.227362             -0.0000
iter:  43  13:05:54  -7.80  -4.72    -2.83-226.227362             -0.0000
iter:  44  13:06:44  -8.00  -4.82    -2.93-226.227361             -0.0000
iter:  45  13:07:34  -7.73  -4.90    -2.98-226.227361             -0.0000
iter:  46  13:08:24  -8.52  -4.96    -3.17-226.227360             -0.0000
iter:  47  13:09:14  -7.75  -5.00    -2.61-226.227361             +0.0000
iter:  48  13:10:04  -8.16  -5.24    -2.94-226.227360             +0.0000
iter:  49  13:10:55  -9.06  -5.45    -3.80-226.227360             +0.0000
iter:  50  13:11:44  -9.00  -5.50    -3.44-226.227360             +0.0000
iter:  51  13:12:34  -9.20  -5.64    -3.50-226.227360             +0.0000
iter:  52  13:13:24  -8.86  -5.75    -3.44-226.227360             +0.0000
iter:  53  13:14:15  -9.38  -5.91    -3.58-226.227360             +0.0000
iter:  54  13:15:04  -9.96  -5.92    -3.96-226.227360             +0.0000
iter:  55  13:15:55  -9.86  -6.00    -3.84-226.227360             +0.0000
iter:  56  13:16:45 -10.78  -6.27    -4.24-226.227360             +0.0000
iter:  57  13:17:35 -11.10  -6.38    -4.73-226.227360             +0.0000
iter:  58  13:18:25 -11.63  -6.41    -4.63-226.227360             +0.0000
iter:  59  13:19:15 -11.15  -6.44    -4.39-226.227360             +0.0000
iter:  60  13:20:04 -12.07  -6.52    -4.79-226.227360             +0.0000
iter:  61  13:20:54 -10.73  -6.58    -4.23-226.227360             +0.0000
iter:  62  13:21:44 -11.49  -6.73    -4.55-226.227360             +0.0000
iter:  63  13:22:34 -11.95  -6.83    -4.74-226.227360             +0.0000
iter:  64  13:23:24 -11.46  -7.07    -4.59-226.227360             +0.0000
iter:  65  13:24:14 -11.75  -7.10    -4.84-226.227360             +0.0000
iter:  66  13:25:04 -12.82  -7.52    -5.25-226.227360             +0.0000
iter:  67  13:25:54 -12.77  -7.68    -5.45-226.227360             +0.0000
iter:  68  13:26:44 -13.27  -7.66    -5.72-226.227360             +0.0000
iter:  69  13:27:34 -13.32  -7.80    -5.91-226.227360             +0.0000
iter:  70  13:28:24 -14.08  -7.95    -6.12-226.227360             +0.0000

Converged after 70 iterations.

Dipole moment: (10.675473, 1.408925, -6.270249) |e|*Ang

Total magnetic moment: (0.000000, 0.000000, 0.000000)
Local magnetic moments:
   0 O  ( 0.000000,  0.000000, -0.000536)
   1 O  ( 0.000000,  0.000000,  0.000600)
   2 O  ( 0.000000,  0.000000,  0.000514)
   3 O  ( 0.000000,  0.000000, -0.000573)
   4 O  ( 0.000000,  0.000000,  0.000498)
   5 O  ( 0.000000,  0.000000, -0.000553)
   6 O  ( 0.000000,  0.000000, -0.000581)
   7 O  ( 0.000000,  0.000000,  0.000575)
   8 O  ( 0.000000,  0.000000,  0.028692)
   9 O  ( 0.000000,  0.000000, -0.028748)
  10 O  ( 0.000000,  0.000000, -0.028638)
  11 O  ( 0.000000,  0.000000,  0.028820)
  12 Mn ( 0.000000,  0.000000,  4.448725)
  13 Mn ( 0.000000,  0.000000, -4.448969)
  14 Mn ( 0.000000,  0.000000, -4.448167)
  15 Mn ( 0.000000,  0.000000,  4.448259)
  16 P  ( 0.000000,  0.000000,  0.001519)
  17 P  ( 0.000000,  0.000000, -0.001555)
  18 P  ( 0.000000,  0.000000, -0.001545)
  19 P  ( 0.000000,  0.000000,  0.001533)
  20 O  ( 0.000000,  0.000000,  0.025350)
  21 O  ( 0.000000,  0.000000, -0.025270)
  22 O  ( 0.000000,  0.000000, -0.025339)
  23 O  ( 0.000000,  0.000000,  0.025263)
  24 Li ( 0.000000,  0.000000, -0.000000)
  25 Li ( 0.000000,  0.000000,  0.000003)
  26 Li ( 0.000000,  0.000000,  0.000000)
  27 Li ( 0.000000,  0.000000, -0.000004)

Energy contributions relative to reference atoms: (reference = -196157.275402)

Kinetic:       +217.621057
Potential:     -195.441664
External:        +0.000000
XC:            -250.447580
Entropy (-ST):   -0.000000
Local:           +2.040826
Free energy:   -226.227360
Extrapolated:  -226.227360

Spin contamination: 9.561187 electrons
Showing only first 2 kpts
                      Up                     Down
 Kpt  Band  Eigenvalues  Occupancy  Eigenvalues  Occupancy
  0    88      5.10727    0.00694      5.10530    0.00694
  0    89      5.13461    0.00694      5.13221    0.00694
  0    90      7.28582    0.00000      7.28363    0.00000
  0    91      7.30417    0.00000      7.30711    0.00000

  1    88      5.13334    0.00694      5.13111    0.00694
  1    89      5.16465    0.00694      5.16262    0.00694
  1    90      7.22840    0.00000      7.22403    0.00000
  1    91      7.24180    0.00000      7.24499    0.00000

Fermi level: 6.02472

Gap: 1.967 eV
Transition (v -> c):
  (s=0, k=73, n=89, [0.08, -0.42, -0.12]) -> (s=1, k=57, n=90, [-0.08, -0.08, -0.12])
Writing to born-0.01-6x+.gpw (mode='all')