User:   madkru@i009.nifl.fysik.dtu.dk
Date:   Thu Apr  1 20:33:01 2021
Arch:   x86_64
Pid:    31381
Python: 3.8.6
gpaw:   /home/niflheim/madkru/venv_madkru/gpaw/gpaw (e6f0d78a31)
_gpaw:  /home/niflheim/madkru/venv_madkru/gpaw/build/lib.linux-x86_64-ivybridge-3.8/
        _gpaw.cpython-38-x86_64-linux-gnu.so (e6f0d78a31)
ase:    /home/niflheim/madkru/venv_madkru/ase/ase (version 3.22.0b1-4d5a73cb29)
numpy:  /home/modules/software/SciPy-bundle/2020.11-foss-2020b/lib/python3.8/site-packages/numpy (version 1.19.4)
scipy:  /home/modules/software/SciPy-bundle/2020.11-foss-2020b/lib/python3.8/site-packages/scipy (version 1.5.4)
units:  Angstrom and eV
cores: 64
OpenMP: False
OMP_NUM_THREADS: 1

Input parameters:
  convergence: {bands: occupied,
                density: 0.0001,
                eigenstates: 4e-08,
                energy: 0.0005,
                forces: 1e-06}
  kpts: [6 6 4]
  maxiter: 1000
  mode: {ecut: 600.0,
         gammacentered: False,
         name: pw}
  occupations: {fixmagmom: False,
                name: fermi-dirac,
                width: 0.001}
  symmetry: {point_group: False,
             time_reversal: False}

System changes: positions, numbers, cell, pbc, initial_charges, initial_magmoms

Initialize ...

O-setup:
  name: Oxygen
  id: 9b9d51c344dea68c822856295a461509
  Z: 8.0
  valence: 6
  core: 2
  charge: 0.0
  file: /home/modules/software/GPAW-setups/0.9.20000/O.LDA.gz
  compensation charges: gauss, rc=0.21, lmax=2
  cutoffs: 1.17(filt), 0.83(core),
  valence states:
                energy  radius
    2s(2.00)   -23.752   0.688
    2p(4.00)    -9.195   0.598
    *s           3.459   0.688
    *p          18.016   0.598
    *d           0.000   0.619

  Using partial waves for O as LCAO basis

Mn-setup:
  name: Manganese
  id: 0d715a8018be061a6e9ea6f2d364ac92
  Z: 25.0
  valence: 15
  core: 10
  charge: 0.0
  file: /home/modules/software/GPAW-setups/0.9.20000/Mn.LDA.gz
  compensation charges: gauss, rc=0.38, lmax=2
  cutoffs: 2.14(filt), 0.86(core),
  valence states:
                energy  radius
    3s(2.00)   -85.387   1.275
    4s(2.00)    -5.282   1.275
    3p(6.00)   -54.493   1.281
    4p(0.00)    -1.471   1.281
    3d(5.00)    -7.009   1.138
    *d          20.203   1.138

[...]

P-setup:
  name: Phosphorus
  id: a5561c299094968922a179ab894d2e2d
  Z: 15.0
  valence: 5
  core: 10
  charge: 0.0
  file: /home/modules/software/GPAW-setups/0.9.20000/P.LDA.gz
  compensation charges: gauss, rc=0.30, lmax=2
  cutoffs: 1.69(filt), 1.81(core),
  valence states:
                energy  radius
    3s(2.00)   -14.015   0.953
    3p(3.00)    -5.596   0.953
    *s          13.197   0.953
    *p          21.615   0.953
    *d           0.000   0.953

[...]

Li-setup:
  name: Lithium
  id: b73562207f97a71b6967473b66fe8b65
  Z: 3.0
  valence: 1
  core: 2
  charge: 0.0
  file: /home/modules/software/GPAW-setups/0.9.20000/Li.LDA.gz
  compensation charges: gauss, rc=0.33, lmax=2
  cutoffs: 1.91(filt), 2.55(core),
  valence states:
                energy  radius
    2s(1.00)    -2.874   1.058
    2p(0.00)    -1.126   1.058
    *s          24.338   1.058

  Using partial waves for Li as LCAO basis

Reference energy: -196157.275402

Spin-polarized calculation.
Magnetic moment: 0.000000

Convergence criteria:
  Maximum total energy change: 0.0005 eV / electron
  Maximum integral of absolute density change: 0.0001 electrons
  Maximum integral of absolute eigenstate change: 4e-08 eV^2
  Maximum change in atomic force: 1e-06 eV / Ang
  Maximum number of iterations: 1000

Symmetries present (total): 1

  ( 1  0  0)
  ( 0  1  0)
  ( 0  0  1)

144 k-points: 6 x 6 x 4 Monkhorst-Pack grid
144 k-points in the irreducible part of the Brillouin zone
       k-points in crystal coordinates                weights
   0:    -0.41666667   -0.41666667   -0.37500000          1/144
   1:    -0.41666667   -0.41666667   -0.12500000          1/144
   2:    -0.41666667   -0.41666667    0.12500000          1/144
   3:    -0.41666667   -0.41666667    0.37500000          1/144
   4:    -0.41666667   -0.25000000   -0.37500000          1/144
   5:    -0.41666667   -0.25000000   -0.12500000          1/144
   6:    -0.41666667   -0.25000000    0.12500000          1/144
   7:    -0.41666667   -0.25000000    0.37500000          1/144
   8:    -0.41666667   -0.08333333   -0.37500000          1/144
   9:    -0.41666667   -0.08333333   -0.12500000          1/144
          ...
 143:     0.41666667    0.41666667    0.37500000          1/144

Wave functions: Plane wave expansion
  Cutoff energy: 600.000 eV
  Number of coefficients (min, max): 10068, 10125
  Pulay-stress correction: 0.000000 eV/Ang^3 (de/decut=0.000000)
  Using FFTW library
  ScaLapack parameters: grid=1x1, blocksize=None
  Wavefunction extrapolation:
    Improved wavefunction reuse through dual PAW basis

  Fermi-Dirac: width=0.0010 eV

Eigensolver
   Davidson(niter=2)

Densities:
  Coarse grid: 60*35*27 grid
  Fine grid: 120*70*54 grid
  Total Charge: 0.000000

Density mixing:
  Method: difference
  Backend: pulay
  Linear mixing parameter: 0.05
  Mixing with 5 old densities
  Damping of long wave oscillations: 50

Hamiltonian:
  XC and Coulomb potentials evaluated on a 120*70*54 grid
  Using the LDA Exchange-Correlation functional

Total number of cores used: 64
Parallelization over k-points: 16
Domain decomposition: 2 x 2 x 1

Number of atoms: 28
Number of atomic orbitals: 148
Number of bands in calculation: 112
Number of valence electrons: 180
Bands to converge: occupied

... initialized

Initializing position-dependent things.

Density initialized from atomic densities
Creating initial wave functions:
  112 bands from LCAO basis set

    /|         OP              |
   / |O            O        O  |
  /  |       O            O  P |
 *   |O    Mn      O           |
 |   |          OLi          O |
 |   .P-O--------------Mn------.
 |  /          Li    O  Mn  O /
 | /Li O           PO        /
 |/       Mn                /
 *Li-----------------------*

Positions:
   0 O     -1.360678   -2.541161   -1.202221    ( 0.0000,  0.0000,  0.0000)
   1 O     -3.121941    2.976855    1.167242    ( 0.0000,  0.0000,  0.0000)
   2 O      2.107533    0.508090    1.540712    ( 0.0000,  0.0000,  0.0000)
   3 O      3.869373   -0.072395   -0.828750    ( 0.0000,  0.0000,  0.0000)
   4 O      2.107821    2.976875    1.540792    ( 0.0000,  0.0000,  0.0000)
   5 O      3.869084   -2.541141   -0.828671    ( 0.0000,  0.0000,  0.0000)
   6 O     -1.360390   -0.072375   -1.202141    ( 0.0000,  0.0000,  0.0000)
   7 O     -3.122230    0.508109    1.167321    ( 0.0000,  0.0000,  0.0000)
   8 O     -4.413461   -1.306992   -0.794251    ( 0.0000,  0.0000,  0.0000)
   9 O     -0.069585    1.742707    1.575662    ( 0.0000,  0.0000,  0.0000)
  10 O      5.160604    1.742707    1.132822    ( 0.0000,  0.0000,  0.0000)
  11 O      0.816728   -1.306992   -1.237091    ( 0.0000,  0.0000,  0.0000)
  12 Mn    -2.570809   -1.307302    0.247161    ( 0.0000,  0.0000,  1.0000)
  13 Mn    -1.912021    1.743016   -2.122906    ( 0.0000,  0.0000, -1.0000)
  14 Mn     3.317952    1.743017    0.091411    ( 0.0000,  0.0000, -1.0000)
  15 Mn     2.659164   -1.307302    2.461478    ( 0.0000,  0.0000,  1.0000)
  16 P     -0.620664   -1.306816   -1.828465    ( 0.0000,  0.0000,  0.0000)
  17 P     -3.862097    1.742530    0.541238    ( 0.0000,  0.0000,  0.0000)
  18 P      1.367807    1.742530    2.167036    ( 0.0000,  0.0000,  0.0000)
  19 P      4.609240   -1.306816   -0.202666    ( 0.0000,  0.0000,  0.0000)
  20 O     -0.646437   -1.306845    1.374751    ( 0.0000,  0.0000,  0.0000)
  21 O     -3.836504    1.742559   -0.995565    ( 0.0000,  0.0000,  0.0000)
  22 O      1.393580    1.752559   -1.036179    ( 0.0000,  0.0000,  0.0000)
  23 O      4.583647   -1.306845    1.334136    ( 0.0000,  0.0000,  0.0000)
  24 Li    -4.856429   -2.832143   -2.200714    ( 0.0000,  0.0000,  0.0000)
  25 Li     0.373571   -2.832143    0.169286    ( 0.0000,  0.0000,  0.0000)
  26 Li    -4.856429    0.217857   -2.200714    ( 0.0000,  0.0000,  0.0000)
  27 Li     0.373571    0.217857    0.169286    ( 0.0000,  0.0000,  0.0000)

Unit cell:
           periodic     x           y           z      points  spacing
  1. axis:    yes   10.460000    0.000000    0.000000    60     0.1743
  2. axis:    yes    0.000000    6.100000    0.000000    35     0.1743
  3. axis:    yes    0.000000    0.000000    4.740000    27     0.1756

  Lengths:  10.460000   6.100000   4.740000
  Angles:   90.000000  90.000000  90.000000

Effective grid spacing dv^(1/3) = 0.1747

                     log10-error:           total        iterations:
           time      wfs    density  force  energy       poisson  magmom
iter:   1  20:34:30                       -231.920216             +0.0000
iter:   2  20:34:51  -0.55  -0.94         -231.730845             +0.0052
iter:   3  20:35:12  -0.72  -0.98         -220.584681             +0.0065
iter:   4  20:35:33  -0.96  -1.20         -218.866134             +0.0022
iter:   5  20:35:53  -1.94  -1.36         -221.254457             +0.0014
iter:   6  20:36:14  -1.99  -1.50         -219.970062             +0.0007
iter:   7  20:36:35  -2.21  -1.68         -222.941250             +0.1802
iter:   8  20:36:56  -2.73  -1.89         -219.885479             +0.2495
iter:   9  20:37:16  -2.19  -1.94         -225.063072             +0.6521
iter:  10  20:37:37  -2.24  -1.87         -227.243686             +0.0001
iter:  11  20:37:58  -2.99  -1.84         -227.283568             -0.0147
iter:  12  20:38:19  -2.99  -1.81         -227.198626             -0.0046
iter:  13  20:38:39  -1.40  -1.80         -228.763353             -0.0036
iter:  14  20:39:00  -2.82  -1.86         -227.177069             -0.0014
iter:  15  20:39:21  -2.71  -2.05         -227.428339             -0.0003
iter:  16  20:39:42  -2.68  -2.03         -226.799571             -0.0007
iter:  17  20:40:02  -2.16  -2.07         -226.550106             -0.0002
iter:  18  20:40:23  -1.98  -2.08         -227.117877             -0.0001
iter:  19  20:40:43  -2.75  -2.09         -226.636614             -0.0001
iter:  20  20:41:04  -3.46  -2.16         -226.564589             -0.0000
iter:  21  20:41:25  -3.00  -2.20         -226.422964             +0.0000
iter:  22  20:41:45  -3.20  -2.28         -226.330563             +0.0000
iter:  23  20:42:06  -2.22  -2.31         -226.352977             +0.0000
iter:  24  20:42:27  -3.22  -2.47         -226.245774             +0.0000
iter:  25  20:42:47  -3.24  -2.73         -226.236631             +0.0000
iter:  26  20:43:08  -4.06  -3.02         -226.230493             -0.0000
iter:  27  20:43:29  -3.65  -3.07         -226.229280             -0.0000
iter:  28  20:43:49  -4.64  -3.24         -226.229515             -0.0000
iter:  29  20:44:10  -3.99  -3.29         -226.229877             -0.0000
iter:  30  20:44:31  -4.99  -3.40         -226.228793             -0.0000
iter:  31  20:44:51  -5.24  -3.62         -226.228029             -0.0000
iter:  32  20:45:12  -5.24  -3.71         -226.227794             -0.0000
iter:  33  20:45:33  -5.91  -3.83         -226.227862             -0.0000
iter:  34  20:45:54  -6.23  -3.89         -226.227924             -0.0000
iter:  35  20:46:14  -5.88  -3.96         -226.227778             -0.0000
iter:  36  20:46:35  -6.36  -4.07         -226.227754             -0.0000
iter:  37  20:46:56  -6.23  -4.11         -226.227741             -0.0000
iter:  38  20:47:16  -6.49  -4.43         -226.227727             -0.0000
iter:  39  20:47:37  -7.32  -4.61         -226.227726             -0.0000
iter:  40  20:47:58  -7.08  -4.63         -226.227729             +0.0000
iter:  41  20:48:24  -8.00  -4.76         -226.227728             -0.0000
iter:  42  20:48:44  -7.21  -4.80         -226.227726             -0.0000
iter:  43  20:49:10  -7.82  -4.90    -2.80-226.227726             -0.0000
iter:  44  20:49:36  -8.77  -5.02    -3.23-226.227726             -0.0000
iter:  45  20:50:02  -9.56  -5.06    -3.70-226.227726             -0.0000
iter:  46  20:50:28  -8.09  -5.09    -3.02-226.227725             -0.0000
iter:  47  20:50:54  -8.64  -5.40    -3.46-226.227725             -0.0000
iter:  48  20:51:19  -9.11  -5.45    -3.45-226.227725             +0.0000
iter:  49  20:51:45  -9.34  -5.59    -3.54-226.227725             +0.0000
iter:  50  20:52:11  -9.61  -5.84    -3.74-226.227725             +0.0000
iter:  51  20:52:37 -10.21  -5.93    -4.00-226.227725             +0.0000
iter:  52  20:53:03  -9.82  -6.00    -3.69-226.227725             +0.0000
iter:  53  20:53:29 -10.83  -6.36    -4.32-226.227725             +0.0000
iter:  54  20:53:54 -11.84  -6.55    -5.02-226.227725             +0.0000
iter:  55  20:54:20 -10.75  -6.60    -4.35-226.227725             +0.0000
iter:  56  20:54:46 -11.47  -6.78    -4.85-226.227725             +0.0000
iter:  57  20:55:12 -11.74  -6.88    -4.62-226.227725             +0.0000
iter:  58  20:55:38 -12.22  -6.95    -4.76-226.227725             +0.0000
iter:  59  20:56:03 -12.47  -7.31    -5.09-226.227725             +0.0000
iter:  60  20:56:29 -13.29  -7.43    -5.63-226.227725             +0.0000
iter:  61  20:56:55 -12.88  -7.46    -5.33-226.227725             +0.0000
iter:  62  20:57:21 -13.62  -7.61    -5.70-226.227725             +0.0000
iter:  63  20:57:47 -13.59  -7.72    -5.61-226.227725             +0.0000
iter:  64  20:58:12 -13.45  -7.83    -5.56-226.227725             +0.0000
iter:  65  20:58:38 -13.48  -7.88    -5.62-226.227725             +0.0000
iter:  66  20:59:04 -13.77  -8.09    -5.85-226.227725             +0.0000
iter:  67  20:59:30 -14.82  -8.13    -6.52-226.227725             +0.0000

Converged after 67 iterations.

Dipole moment: (10.671469, 1.407156, -6.269789) |e|*Ang

Total magnetic moment: (0.000000, 0.000000, 0.000000)
Local magnetic moments:
   0 O  ( 0.000000,  0.000000, -0.000513)
   1 O  ( 0.000000,  0.000000,  0.000534)
   2 O  ( 0.000000,  0.000000,  0.000575)
   3 O  ( 0.000000,  0.000000, -0.000536)
   4 O  ( 0.000000,  0.000000,  0.000480)
   5 O  ( 0.000000,  0.000000, -0.000551)
   6 O  ( 0.000000,  0.000000, -0.000544)
   7 O  ( 0.000000,  0.000000,  0.000553)
   8 O  ( 0.000000,  0.000000,  0.028693)
   9 O  ( 0.000000,  0.000000, -0.028701)
  10 O  ( 0.000000,  0.000000, -0.028693)
  11 O  ( 0.000000,  0.000000,  0.028701)
  12 Mn ( 0.000000,  0.000000,  4.448162)
  13 Mn ( 0.000000,  0.000000, -4.448240)
  14 Mn ( 0.000000,  0.000000, -4.448158)
  15 Mn ( 0.000000,  0.000000,  4.448242)
  16 P  ( 0.000000,  0.000000,  0.001558)
  17 P  ( 0.000000,  0.000000, -0.001543)
  18 P  ( 0.000000,  0.000000, -0.001557)
  19 P  ( 0.000000,  0.000000,  0.001543)
  20 O  ( 0.000000,  0.000000,  0.025315)
  21 O  ( 0.000000,  0.000000, -0.025306)
  22 O  ( 0.000000,  0.000000, -0.025316)
  23 O  ( 0.000000,  0.000000,  0.025306)
  24 Li ( 0.000000,  0.000000,  0.000000)
  25 Li ( 0.000000,  0.000000, -0.000004)
  26 Li ( 0.000000,  0.000000, -0.000000)
  27 Li ( 0.000000,  0.000000,  0.000004)

Energy contributions relative to reference atoms: (reference = -196157.275402)

Kinetic:       +217.349599
Potential:     -195.235106
External:        +0.000000
XC:            -250.383396
Entropy (-ST):   -0.000000
Local:           +2.041177
Free energy:   -226.227725
Extrapolated:  -226.227725

Spin contamination: 9.560411 electrons
Showing only first 2 kpts
                      Up                     Down
 Kpt  Band  Eigenvalues  Occupancy  Eigenvalues  Occupancy
  0    88      5.10992    1.00000      5.10996    1.00000
  0    89      5.13435    1.00000      5.13446    1.00000
  0    90      7.28864    0.00000      7.28864    0.00000
  0    91      7.30637    0.00000      7.30637    0.00000

  1    88      5.13563    1.00000      5.13568    1.00000
  1    89      5.16483    1.00000      5.16498    1.00000
  1    90      7.23143    0.00000      7.23144    0.00000
  1    91      7.24367    0.00000      7.24366    0.00000

Fermi level: 6.47249

Gap: 1.972 eV
Transition (v -> c):
  (s=1, k=94, n=89, [0.08, 0.42, 0.12]) -> (s=0, k=58, n=90, [-0.08, -0.08, 0.12])
Writing to born-0.01-22y+.gpw (mode='all')