User:   madkru@g064.nifl.fysik.dtu.dk
Date:   Mon Mar 22 03:44:59 2021
Arch:   x86_64
Pid:    60512
Python: 3.7.4
gpaw:   /home/niflheim/madkru/venv_folder/gpaw/gpaw (d0d1ca1c71)
_gpaw:  /home/niflheim/madkru/venv_folder/gpaw/build/lib.linux-x86_64-sandybridge-3.7/
        _gpaw.cpython-37m-x86_64-linux-gnu.so (4fd39e8b1e)
ase:    /home/niflheim/madkru/venv_folder/ase/ase (version 3.21.0b1-7e6c206a91)
numpy:  /home/niflheim/madkru/venv_folder/lib/python3.7/site-packages/numpy (version 1.19.4)
scipy:  /home/niflheim/madkru/venv_folder/lib/python3.7/site-packages/scipy (version 1.5.4)
units:  Angstrom and eV
cores: 32
OMP_NUM_THREADS: 1

Input parameters:
  convergence: {bands: occupied,
                density: 0.0001,
                eigenstates: 4e-08,
                energy: 0.0005,
                forces: 1e-06}
  kpts: [6 6 4]
  mode: {ecut: 600.0,
         gammacentered: False,
         name: pw}
  occupations: {fixmagmom: False,
                name: fermi-dirac,
                width: 0.001}
  symmetry: {point_group: False,
             time_reversal: False}

System changes: positions, numbers, cell, pbc, initial_charges, initial_magmoms

Initialize ...

O-setup:
  name: Oxygen
  id: 9b9d51c344dea68c822856295a461509
  Z: 8.0
  valence: 6
  core: 2
  charge: 0.0
  file: /home/modules/software/GPAW-setups/0.9.20000/O.LDA.gz
  compensation charges: gauss, rc=0.21, lmax=2
  cutoffs: 1.17(filt), 0.83(core),
  valence states:
                energy  radius
    2s(2.00)   -23.752   0.688
    2p(4.00)    -9.195   0.598
    *s           3.459   0.688
    *p          18.016   0.598
    *d           0.000   0.619

  Using partial waves for O as LCAO basis

Mn-setup:
  name: Manganese
  id: 0d715a8018be061a6e9ea6f2d364ac92
  Z: 25.0
  valence: 15
  core: 10
  charge: 0.0
  file: /home/modules/software/GPAW-setups/0.9.20000/Mn.LDA.gz
  compensation charges: gauss, rc=0.38, lmax=2
  cutoffs: 2.14(filt), 0.86(core),
  valence states:
                energy  radius
    3s(2.00)   -85.387   1.275
    4s(2.00)    -5.282   1.275
    3p(6.00)   -54.493   1.281
    4p(0.00)    -1.471   1.281
    3d(5.00)    -7.009   1.138
    *d          20.203   1.138

[...]

P-setup:
  name: Phosphorus
  id: a5561c299094968922a179ab894d2e2d
  Z: 15.0
  valence: 5
  core: 10
  charge: 0.0
  file: /home/modules/software/GPAW-setups/0.9.20000/P.LDA.gz
  compensation charges: gauss, rc=0.30, lmax=2
  cutoffs: 1.69(filt), 1.81(core),
  valence states:
                energy  radius
    3s(2.00)   -14.015   0.953
    3p(3.00)    -5.596   0.953
    *s          13.197   0.953
    *p          21.615   0.953
    *d           0.000   0.953

[...]

Li-setup:
  name: Lithium
  id: b73562207f97a71b6967473b66fe8b65
  Z: 3.0
  valence: 1
  core: 2
  charge: 0.0
  file: /home/modules/software/GPAW-setups/0.9.20000/Li.LDA.gz
  compensation charges: gauss, rc=0.33, lmax=2
  cutoffs: 1.91(filt), 2.55(core),
  valence states:
                energy  radius
    2s(1.00)    -2.874   1.058
    2p(0.00)    -1.126   1.058
    *s          24.338   1.058

  Using partial waves for Li as LCAO basis

Reference energy: -196157.275402

Spin-polarized calculation.
Magnetic moment: 0.000000

Convergence criteria:
  Maximum total energy change: 0.0005 eV / electron
  Maximum integral of absolute density change: 0.0001 electrons
  Maximum integral of absolute eigenstate change: 4e-08 eV^2
  Maximum change in atomic force: 1e-06 eV / Ang
  Maximum number of iterations: 333

Symmetries present (total): 1

  ( 1  0  0)
  ( 0  1  0)
  ( 0  0  1)

144 k-points: 6 x 6 x 4 Monkhorst-Pack grid
144 k-points in the irreducible part of the Brillouin zone
       k-points in crystal coordinates                weights
   0:    -0.41666667   -0.41666667   -0.37500000          1/144
   1:    -0.41666667   -0.41666667   -0.12500000          1/144
   2:    -0.41666667   -0.41666667    0.12500000          1/144
   3:    -0.41666667   -0.41666667    0.37500000          1/144
   4:    -0.41666667   -0.25000000   -0.37500000          1/144
   5:    -0.41666667   -0.25000000   -0.12500000          1/144
   6:    -0.41666667   -0.25000000    0.12500000          1/144
   7:    -0.41666667   -0.25000000    0.37500000          1/144
   8:    -0.41666667   -0.08333333   -0.37500000          1/144
   9:    -0.41666667   -0.08333333   -0.12500000          1/144
          ...
 143:     0.41666667    0.41666667    0.37500000          1/144

Wave functions: Plane wave expansion
  Cutoff energy: 600.000 eV
  Number of coefficients (min, max): 10068, 10125
  Pulay-stress correction: 0.000000 eV/Ang^3 (de/decut=0.000000)
  Using FFTW library
  ScaLapack parameters: grid=1x1, blocksize=None
  Wavefunction extrapolation:
    Improved wavefunction reuse through dual PAW basis

  Fermi-Dirac: width=0.0010 eV

Eigensolver
   Davidson(niter=2, smin=None, normalize=True)

Densities:
  Coarse grid: 60*35*27 grid
  Fine grid: 120*70*54 grid
  Total Charge: 0.000000

Density mixing:
  Method: difference
  Backend: pulay
  Linear mixing parameter: 0.05
  Mixing with 5 old densities
  Damping of long wave oscillations: 50

Hamiltonian:
  XC and Coulomb potentials evaluated on a 120*70*54 grid
  Using the LDA Exchange-Correlation functional

Total number of cores used: 32
Parallelization over k-points: 16
Domain decomposition: 2 x 1 x 1

Number of atoms: 28
Number of atomic orbitals: 148
Number of bands in calculation: 112
Number of valence electrons: 180
Bands to converge: occupied

... initialized

Initializing position-dependent things.

Density initialized from atomic densities
Creating initial wave functions:
  112 bands from LCAO basis set

    /|         OP              |
   / |O            O        O  |
  /  |       O            O  P |
 *   |O    Mn      O           |
 |   |          OLi          O |
 |   .P-O--------------Mn------.
 |  /          Li    O  Mn  O /
 | /Li O           PO        /
 |/       Mn                /
 *Li-----------------------*

Positions:
   0 O     -1.360678   -2.541161   -1.202221    ( 0.0000,  0.0000,  0.0000)
   1 O     -3.121941    2.976855    1.167242    ( 0.0000,  0.0000,  0.0000)
   2 O      2.107533    0.508090    1.540712    ( 0.0000,  0.0000,  0.0000)
   3 O      3.869373   -0.072395   -0.828750    ( 0.0000,  0.0000,  0.0000)
   4 O      2.107821    2.986875    1.540792    ( 0.0000,  0.0000,  0.0000)
   5 O      3.869084   -2.541141   -0.828671    ( 0.0000,  0.0000,  0.0000)
   6 O     -1.360390   -0.072375   -1.202141    ( 0.0000,  0.0000,  0.0000)
   7 O     -3.122230    0.508109    1.167321    ( 0.0000,  0.0000,  0.0000)
   8 O     -4.413461   -1.306992   -0.794251    ( 0.0000,  0.0000,  0.0000)
   9 O     -0.069585    1.742707    1.575662    ( 0.0000,  0.0000,  0.0000)
  10 O      5.160604    1.742707    1.132822    ( 0.0000,  0.0000,  0.0000)
  11 O      0.816728   -1.306992   -1.237091    ( 0.0000,  0.0000,  0.0000)
  12 Mn    -2.570809   -1.307302    0.247161    ( 0.0000,  0.0000,  1.0000)
  13 Mn    -1.912021    1.743016   -2.122906    ( 0.0000,  0.0000, -1.0000)
  14 Mn     3.317952    1.743017    0.091411    ( 0.0000,  0.0000, -1.0000)
  15 Mn     2.659164   -1.307302    2.461478    ( 0.0000,  0.0000,  1.0000)
  16 P     -0.620664   -1.306816   -1.828465    ( 0.0000,  0.0000,  0.0000)
  17 P     -3.862097    1.742530    0.541238    ( 0.0000,  0.0000,  0.0000)
  18 P      1.367807    1.742530    2.167036    ( 0.0000,  0.0000,  0.0000)
  19 P      4.609240   -1.306816   -0.202666    ( 0.0000,  0.0000,  0.0000)
  20 O     -0.646437   -1.306845    1.374751    ( 0.0000,  0.0000,  0.0000)
  21 O     -3.836504    1.742559   -0.995565    ( 0.0000,  0.0000,  0.0000)
  22 O      1.393580    1.742559   -1.036179    ( 0.0000,  0.0000,  0.0000)
  23 O      4.583647   -1.306845    1.334136    ( 0.0000,  0.0000,  0.0000)
  24 Li    -4.856429   -2.832143   -2.200714    ( 0.0000,  0.0000,  0.0000)
  25 Li     0.373571   -2.832143    0.169286    ( 0.0000,  0.0000,  0.0000)
  26 Li    -4.856429    0.217857   -2.200714    ( 0.0000,  0.0000,  0.0000)
  27 Li     0.373571    0.217857    0.169286    ( 0.0000,  0.0000,  0.0000)

Unit cell:
           periodic     x           y           z      points  spacing
  1. axis:    yes   10.460000    0.000000    0.000000    60     0.1743
  2. axis:    yes    0.000000    6.100000    0.000000    35     0.1743
  3. axis:    yes    0.000000    0.000000    4.740000    27     0.1756

  Lengths:  10.460000   6.100000   4.740000
  Angles:   90.000000  90.000000  90.000000

Effective grid spacing dv^(1/3) = 0.1747

                     log10-error:           total        iterations:
           time      wfs    density  force  energy       poisson  magmom
iter:   1  03:47:59                       -231.922010             +0.0000
iter:   2  03:48:39  -0.55  -0.94         -231.718123             -0.0043
iter:   3  03:49:18  -0.72  -0.98         -220.588553             -0.0054
iter:   4  03:49:57  -0.95  -1.20         -218.875718             -0.0018
iter:   5  03:50:37  -1.93  -1.36         -222.091858             -0.0012
iter:   6  03:51:17  -1.99  -1.45         -220.809404             -0.0005
iter:   7  03:51:56  -2.02  -1.64         -224.457498             -0.0125
iter:   8  03:52:35  -1.98  -1.82         -226.223044             +0.0055
iter:   9  03:53:15  -2.82  -1.82         -226.881441             -0.0065
iter:  10  03:53:54  -2.29  -1.82         -226.704986             -0.0039
iter:  11  03:54:34  -2.48  -1.89         -226.574514             -0.0011
iter:  12  03:55:13  -2.76  -1.93         -226.491183             -0.0005
iter:  13  03:55:52  -2.29  -1.94         -226.334484             -0.0003
iter:  14  03:56:32  -2.75  -2.41         -226.358994             -0.0002
iter:  15  03:57:11  -3.40  -2.68         -226.273956             -0.0002
iter:  16  03:57:51  -3.03  -2.82         -226.229069             -0.0001
iter:  17  03:58:30  -3.72  -2.90         -226.229992             -0.0000
iter:  18  03:59:10  -4.73  -2.97         -226.228949             +0.0000
iter:  19  03:59:50  -4.57  -3.00         -226.228988             -0.0000
iter:  20  04:00:29  -5.68  -3.23         -226.228549             -0.0000
iter:  21  04:01:08  -4.37  -3.28         -226.226881             -0.0000
iter:  22  04:01:48  -5.32  -3.44         -226.226763             -0.0000
iter:  23  04:02:27  -5.10  -3.57         -226.227018             -0.0000
iter:  24  04:03:07  -5.63  -3.65         -226.227080             -0.0000
iter:  25  04:03:47  -6.00  -3.74         -226.226931             -0.0000
iter:  26  04:04:26  -5.37  -3.81         -226.226659             +0.0000
iter:  27  04:05:05  -6.10  -3.98         -226.226660             -0.0000
iter:  28  04:05:45  -6.04  -4.06         -226.226673             -0.0000
iter:  29  04:06:24  -6.87  -4.28         -226.226653             -0.0000
iter:  30  04:07:04  -7.28  -4.35         -226.226649             -0.0000
iter:  31  04:07:54  -7.68  -4.38         -226.226650             -0.0000
iter:  32  04:08:44  -8.05  -4.54    -2.89-226.226648             -0.0000
iter:  33  04:09:34  -7.46  -4.59    -2.54-226.226647             -0.0000
iter:  34  04:10:25  -8.28  -5.00    -3.13-226.226646             -0.0000
iter:  35  04:11:15  -8.06  -5.08    -3.10-226.226645             +0.0000
iter:  36  04:12:05  -8.49  -5.12    -3.19-226.226645             +0.0000
iter:  37  04:12:55  -9.12  -5.14    -3.00-226.226645             +0.0000
iter:  38  04:13:46  -9.61  -5.20    -3.71-226.226645             +0.0000
iter:  39  04:14:36  -8.62  -5.23    -3.29-226.226645             +0.0000
iter:  40  04:15:26  -9.71  -5.73    -3.62-226.226645             +0.0000
iter:  41  04:16:16 -10.35  -5.79    -4.08-226.226645             +0.0000
iter:  42  04:17:07  -9.66  -5.82    -3.89-226.226645             +0.0000
iter:  43  04:17:57 -10.11  -6.11    -3.97-226.226645             +0.0000
iter:  44  04:18:47 -10.38  -6.23    -4.18-226.226645             +0.0000
iter:  45  04:19:37 -10.38  -6.37    -4.17-226.226645             +0.0000
iter:  46  04:20:27 -11.07  -6.58    -4.46-226.226645             +0.0000
iter:  47  04:21:17 -10.91  -6.65    -4.26-226.226645             +0.0000
iter:  48  04:22:07 -11.83  -6.99    -5.01-226.226645             +0.0000
iter:  49  04:22:57 -12.44  -7.08    -5.21-226.226645             +0.0000
iter:  50  04:23:47 -12.77  -7.14    -4.98-226.226645             +0.0000
iter:  51  04:24:37 -13.32  -7.26    -5.55-226.226645             +0.0000
iter:  52  04:25:27 -12.92  -7.29    -5.30-226.226645             +0.0000
iter:  53  04:26:18 -13.20  -7.36    -5.62-226.226645             +0.0000
iter:  54  04:27:08 -13.36  -7.42    -5.54-226.226645             +0.0000
iter:  55  04:27:58 -14.10  -7.46    -6.11-226.226645             +0.0000

Converged after 55 iterations.

Dipole moment: (10.672136, 1.406990, -6.268791) |e|*Ang

Total magnetic moment: (0.000000, 0.000000, 0.000000)
Local magnetic moments:
   0 O  ( 0.000000,  0.000000, -0.000533)
   1 O  ( 0.000000,  0.000000,  0.000521)
   2 O  ( 0.000000,  0.000000,  0.000397)
   3 O  ( 0.000000,  0.000000, -0.000773)
   4 O  ( 0.000000,  0.000000,  0.000910)
   5 O  ( 0.000000,  0.000000, -0.000502)
   6 O  ( 0.000000,  0.000000, -0.000547)
   7 O  ( 0.000000,  0.000000,  0.000543)
   8 O  ( 0.000000,  0.000000,  0.028710)
   9 O  ( 0.000000,  0.000000, -0.028492)
  10 O  ( 0.000000,  0.000000, -0.028704)
  11 O  ( 0.000000,  0.000000,  0.028712)
  12 Mn ( 0.000000,  0.000000,  4.448177)
  13 Mn ( 0.000000,  0.000000, -4.448136)
  14 Mn ( 0.000000,  0.000000, -4.447970)
  15 Mn ( 0.000000,  0.000000,  4.446870)
  16 P  ( 0.000000,  0.000000,  0.001575)
  17 P  ( 0.000000,  0.000000, -0.001536)
  18 P  ( 0.000000,  0.000000, -0.001250)
  19 P  ( 0.000000,  0.000000,  0.001557)
  20 O  ( 0.000000,  0.000000,  0.025314)
  21 O  ( 0.000000,  0.000000, -0.025328)
  22 O  ( 0.000000,  0.000000, -0.025187)
  23 O  ( 0.000000,  0.000000,  0.025348)
  24 Li ( 0.000000,  0.000000,  0.000001)
  25 Li ( 0.000000,  0.000000,  0.000017)
  26 Li ( 0.000000,  0.000000,  0.000001)
  27 Li ( 0.000000,  0.000000,  0.000001)

Energy contributions relative to reference atoms: (reference = -196157.275402)

Kinetic:       +216.845636
Potential:     -194.845195
External:        +0.000000
XC:            -250.269307
Entropy (-ST):   -0.000000
Local:           +2.042221
Free energy:   -226.226645
Extrapolated:  -226.226645

Spin contamination: 9.559417 electrons
Showing only first 2 kpts
                      Up                     Down
 Kpt  Band  Eigenvalues  Occupancy  Eigenvalues  Occupancy
  0    88      5.11556    0.00694      5.10732    0.00694
  0    89      5.14171    0.00694      5.13161    0.00694
  0    90      7.28591    0.00000      7.29191    0.00000
  0    91      7.30385    0.00000      7.31233    0.00000

  1    88      5.14141    0.00694      5.13306    0.00694
  1    89      5.17202    0.00694      5.16186    0.00694
  1    90      7.22779    0.00000      7.23428    0.00000
  1    91      7.24085    0.00000      7.24987    0.00000

Fermi level: 6.45563

Gap: 1.962 eV
Transition (v -> c):
  (s=0, k=73, n=89, [0.08, -0.42, -0.12]) -> (s=0, k=61, n=90, [-0.08, 0.08, -0.12])
Writing to born-0.01-4y+.gpw (mode='all')