User:   madkru@g064.nifl.fysik.dtu.dk
Date:   Sun Mar 21 10:30:25 2021
Arch:   x86_64
Pid:    60512
Python: 3.7.4
gpaw:   /home/niflheim/madkru/venv_folder/gpaw/gpaw (d0d1ca1c71)
_gpaw:  /home/niflheim/madkru/venv_folder/gpaw/build/lib.linux-x86_64-sandybridge-3.7/
        _gpaw.cpython-37m-x86_64-linux-gnu.so (4fd39e8b1e)
ase:    /home/niflheim/madkru/venv_folder/ase/ase (version 3.21.0b1-7e6c206a91)
numpy:  /home/niflheim/madkru/venv_folder/lib/python3.7/site-packages/numpy (version 1.19.4)
scipy:  /home/niflheim/madkru/venv_folder/lib/python3.7/site-packages/scipy (version 1.5.4)
units:  Angstrom and eV
cores: 32
OMP_NUM_THREADS: 1

Input parameters:
  convergence: {bands: occupied,
                density: 0.0001,
                eigenstates: 4e-08,
                energy: 0.0005,
                forces: 1e-06}
  kpts: [6 6 4]
  mode: {ecut: 600.0,
         gammacentered: False,
         name: pw}
  occupations: {fixmagmom: False,
                name: fermi-dirac,
                width: 0.001}
  symmetry: {point_group: False,
             time_reversal: False}

System changes: positions, numbers, cell, pbc, initial_charges, initial_magmoms

Initialize ...

O-setup:
  name: Oxygen
  id: 9b9d51c344dea68c822856295a461509
  Z: 8.0
  valence: 6
  core: 2
  charge: 0.0
  file: /home/modules/software/GPAW-setups/0.9.20000/O.LDA.gz
  compensation charges: gauss, rc=0.21, lmax=2
  cutoffs: 1.17(filt), 0.83(core),
  valence states:
                energy  radius
    2s(2.00)   -23.752   0.688
    2p(4.00)    -9.195   0.598
    *s           3.459   0.688
    *p          18.016   0.598
    *d           0.000   0.619

  Using partial waves for O as LCAO basis

Mn-setup:
  name: Manganese
  id: 0d715a8018be061a6e9ea6f2d364ac92
  Z: 25.0
  valence: 15
  core: 10
  charge: 0.0
  file: /home/modules/software/GPAW-setups/0.9.20000/Mn.LDA.gz
  compensation charges: gauss, rc=0.38, lmax=2
  cutoffs: 2.14(filt), 0.86(core),
  valence states:
                energy  radius
    3s(2.00)   -85.387   1.275
    4s(2.00)    -5.282   1.275
    3p(6.00)   -54.493   1.281
    4p(0.00)    -1.471   1.281
    3d(5.00)    -7.009   1.138
    *d          20.203   1.138

[...]

P-setup:
  name: Phosphorus
  id: a5561c299094968922a179ab894d2e2d
  Z: 15.0
  valence: 5
  core: 10
  charge: 0.0
  file: /home/modules/software/GPAW-setups/0.9.20000/P.LDA.gz
  compensation charges: gauss, rc=0.30, lmax=2
  cutoffs: 1.69(filt), 1.81(core),
  valence states:
                energy  radius
    3s(2.00)   -14.015   0.953
    3p(3.00)    -5.596   0.953
    *s          13.197   0.953
    *p          21.615   0.953
    *d           0.000   0.953

[...]

Li-setup:
  name: Lithium
  id: b73562207f97a71b6967473b66fe8b65
  Z: 3.0
  valence: 1
  core: 2
  charge: 0.0
  file: /home/modules/software/GPAW-setups/0.9.20000/Li.LDA.gz
  compensation charges: gauss, rc=0.33, lmax=2
  cutoffs: 1.91(filt), 2.55(core),
  valence states:
                energy  radius
    2s(1.00)    -2.874   1.058
    2p(0.00)    -1.126   1.058
    *s          24.338   1.058

  Using partial waves for Li as LCAO basis

Reference energy: -196157.275402

Spin-polarized calculation.
Magnetic moment: 0.000000

Convergence criteria:
  Maximum total energy change: 0.0005 eV / electron
  Maximum integral of absolute density change: 0.0001 electrons
  Maximum integral of absolute eigenstate change: 4e-08 eV^2
  Maximum change in atomic force: 1e-06 eV / Ang
  Maximum number of iterations: 333

Symmetries present (total): 1

  ( 1  0  0)
  ( 0  1  0)
  ( 0  0  1)

144 k-points: 6 x 6 x 4 Monkhorst-Pack grid
144 k-points in the irreducible part of the Brillouin zone
       k-points in crystal coordinates                weights
   0:    -0.41666667   -0.41666667   -0.37500000          1/144
   1:    -0.41666667   -0.41666667   -0.12500000          1/144
   2:    -0.41666667   -0.41666667    0.12500000          1/144
   3:    -0.41666667   -0.41666667    0.37500000          1/144
   4:    -0.41666667   -0.25000000   -0.37500000          1/144
   5:    -0.41666667   -0.25000000   -0.12500000          1/144
   6:    -0.41666667   -0.25000000    0.12500000          1/144
   7:    -0.41666667   -0.25000000    0.37500000          1/144
   8:    -0.41666667   -0.08333333   -0.37500000          1/144
   9:    -0.41666667   -0.08333333   -0.12500000          1/144
          ...
 143:     0.41666667    0.41666667    0.37500000          1/144

Wave functions: Plane wave expansion
  Cutoff energy: 600.000 eV
  Number of coefficients (min, max): 10068, 10125
  Pulay-stress correction: 0.000000 eV/Ang^3 (de/decut=0.000000)
  Using FFTW library
  ScaLapack parameters: grid=1x1, blocksize=None
  Wavefunction extrapolation:
    Improved wavefunction reuse through dual PAW basis

  Fermi-Dirac: width=0.0010 eV

Eigensolver
   Davidson(niter=2, smin=None, normalize=True)

Densities:
  Coarse grid: 60*35*27 grid
  Fine grid: 120*70*54 grid
  Total Charge: 0.000000

Density mixing:
  Method: difference
  Backend: pulay
  Linear mixing parameter: 0.05
  Mixing with 5 old densities
  Damping of long wave oscillations: 50

Hamiltonian:
  XC and Coulomb potentials evaluated on a 120*70*54 grid
  Using the LDA Exchange-Correlation functional

Total number of cores used: 32
Parallelization over k-points: 16
Domain decomposition: 2 x 1 x 1

Number of atoms: 28
Number of atomic orbitals: 148
Number of bands in calculation: 112
Number of valence electrons: 180
Bands to converge: occupied

... initialized

Initializing position-dependent things.

Density initialized from atomic densities
Creating initial wave functions:
  112 bands from LCAO basis set

    /|         OP              |
   / |O            O        O  |
  /  |       O            O  P |
 *   |O    Mn      O           |
 |   |          OLi          O |
 |   .P-O--------------Mn------.
 |  /          Li    O  Mn  O /
 | /Li O           PO        /
 |/       Mn                /
 *Li-----------------------*

Positions:
   0 O     -1.360678   -2.541161   -1.202221    ( 0.0000,  0.0000,  0.0000)
   1 O     -3.121941    2.966855    1.167242    ( 0.0000,  0.0000,  0.0000)
   2 O      2.107533    0.508090    1.540712    ( 0.0000,  0.0000,  0.0000)
   3 O      3.869373   -0.072395   -0.828750    ( 0.0000,  0.0000,  0.0000)
   4 O      2.107821    2.976875    1.540792    ( 0.0000,  0.0000,  0.0000)
   5 O      3.869084   -2.541141   -0.828671    ( 0.0000,  0.0000,  0.0000)
   6 O     -1.360390   -0.072375   -1.202141    ( 0.0000,  0.0000,  0.0000)
   7 O     -3.122230    0.508109    1.167321    ( 0.0000,  0.0000,  0.0000)
   8 O     -4.413461   -1.306992   -0.794251    ( 0.0000,  0.0000,  0.0000)
   9 O     -0.069585    1.742707    1.575662    ( 0.0000,  0.0000,  0.0000)
  10 O      5.160604    1.742707    1.132822    ( 0.0000,  0.0000,  0.0000)
  11 O      0.816728   -1.306992   -1.237091    ( 0.0000,  0.0000,  0.0000)
  12 Mn    -2.570809   -1.307302    0.247161    ( 0.0000,  0.0000,  1.0000)
  13 Mn    -1.912021    1.743016   -2.122906    ( 0.0000,  0.0000, -1.0000)
  14 Mn     3.317952    1.743017    0.091411    ( 0.0000,  0.0000, -1.0000)
  15 Mn     2.659164   -1.307302    2.461478    ( 0.0000,  0.0000,  1.0000)
  16 P     -0.620664   -1.306816   -1.828465    ( 0.0000,  0.0000,  0.0000)
  17 P     -3.862097    1.742530    0.541238    ( 0.0000,  0.0000,  0.0000)
  18 P      1.367807    1.742530    2.167036    ( 0.0000,  0.0000,  0.0000)
  19 P      4.609240   -1.306816   -0.202666    ( 0.0000,  0.0000,  0.0000)
  20 O     -0.646437   -1.306845    1.374751    ( 0.0000,  0.0000,  0.0000)
  21 O     -3.836504    1.742559   -0.995565    ( 0.0000,  0.0000,  0.0000)
  22 O      1.393580    1.742559   -1.036179    ( 0.0000,  0.0000,  0.0000)
  23 O      4.583647   -1.306845    1.334136    ( 0.0000,  0.0000,  0.0000)
  24 Li    -4.856429   -2.832143   -2.200714    ( 0.0000,  0.0000,  0.0000)
  25 Li     0.373571   -2.832143    0.169286    ( 0.0000,  0.0000,  0.0000)
  26 Li    -4.856429    0.217857   -2.200714    ( 0.0000,  0.0000,  0.0000)
  27 Li     0.373571    0.217857    0.169286    ( 0.0000,  0.0000,  0.0000)

Unit cell:
           periodic     x           y           z      points  spacing
  1. axis:    yes   10.460000    0.000000    0.000000    60     0.1743
  2. axis:    yes    0.000000    6.100000    0.000000    35     0.1743
  3. axis:    yes    0.000000    0.000000    4.740000    27     0.1756

  Lengths:  10.460000   6.100000   4.740000
  Angles:   90.000000  90.000000  90.000000

Effective grid spacing dv^(1/3) = 0.1747

                     log10-error:           total        iterations:
           time      wfs    density  force  energy       poisson  magmom
iter:   1  10:33:21                       -231.917065             +0.0000
iter:   2  10:34:01  -0.55  -0.94         -231.742395             +0.0148
iter:   3  10:34:40  -0.72  -0.98         -220.581087             +0.0186
iter:   4  10:35:19  -0.96  -1.20         -218.859855             +0.0061
iter:   5  10:35:58  -1.92  -1.36         -221.085913             +0.0040
iter:   6  10:36:38  -1.93  -1.51         -220.259257             +0.0022
iter:   7  10:37:17  -2.15  -1.61         -224.157441             +0.0010
iter:   8  10:37:56  -2.56  -1.88         -222.763680             +0.0006
iter:   9  10:38:35  -2.15  -1.86         -226.834506             +0.0004
iter:  10  10:39:15  -2.36  -1.81         -228.136664             +0.0001
iter:  11  10:39:54  -1.30  -1.77         -226.882902             +0.0000
iter:  12  10:40:33  -2.27  -2.08         -226.804300             +0.0000
iter:  13  10:41:12  -1.71  -2.09         -226.590087             +0.0000
iter:  14  10:41:52  -1.90  -2.21         -226.389341             +0.0000
iter:  15  10:42:31  -3.22  -2.29         -226.342042             +0.0000
iter:  16  10:43:10  -1.96  -2.33         -226.466160             -0.0000
iter:  17  10:43:49  -2.31  -2.38         -226.240022             +0.0000
iter:  18  10:44:29  -3.27  -2.85         -226.249174             +0.0000
iter:  19  10:45:08  -3.14  -2.91         -226.238269             -0.0000
iter:  20  10:45:47  -3.44  -2.97         -226.227645             +0.0000
iter:  21  10:46:27  -4.73  -3.27         -226.227236             +0.0000
iter:  22  10:47:06  -4.31  -3.31         -226.228120             +0.0000
iter:  23  10:47:45  -4.44  -3.41         -226.227230             +0.0000
iter:  24  10:48:24  -5.64  -3.59         -226.226935             +0.0000
iter:  25  10:49:04  -5.74  -3.71         -226.226751             -0.0000
iter:  26  10:49:43  -5.72  -3.80         -226.226746             -0.0000
iter:  27  10:50:22  -5.13  -3.94         -226.226633             -0.0000
iter:  28  10:51:02  -6.48  -4.19         -226.226601             -0.0000
iter:  29  10:51:41  -6.87  -4.41         -226.226600             -0.0000
iter:  30  10:52:20  -6.68  -4.48         -226.226597             +0.0000
iter:  31  10:53:00  -6.84  -4.67         -226.226596             +0.0000
iter:  32  10:53:49  -7.59  -4.85         -226.226596             +0.0000
iter:  33  10:54:29  -7.34  -4.86         -226.226594             -0.0000
iter:  34  10:55:19  -8.08  -5.15    -2.58-226.226594             +0.0000
iter:  35  10:56:09  -8.94  -5.19    -3.85-226.226594             +0.0000
iter:  36  10:56:58  -8.82  -5.24    -3.47-226.226594             +0.0000
iter:  37  10:57:48  -8.60  -5.35    -3.02-226.226594             +0.0000
iter:  38  10:58:38  -9.34  -5.55    -3.77-226.226594             +0.0000
iter:  39  10:59:28  -9.81  -5.68    -3.58-226.226594             +0.0000
iter:  40  11:00:18  -9.64  -5.87    -4.11-226.226594             +0.0000
iter:  41  11:01:08  -9.87  -6.05    -3.89-226.226594             +0.0000
iter:  42  11:01:58 -10.77  -6.19    -4.55-226.226594             +0.0000
iter:  43  11:02:48 -10.43  -6.23    -4.02-226.226594             +0.0000
iter:  44  11:03:37 -10.97  -6.36    -4.46-226.226594             +0.0000
iter:  45  11:04:27 -11.29  -6.38    -4.60-226.226594             +0.0000
iter:  46  11:05:17 -12.27  -6.44    -5.32-226.226594             +0.0000
iter:  47  11:06:07 -11.38  -6.46    -4.62-226.226594             +0.0000
iter:  48  11:06:57 -11.43  -6.64    -4.53-226.226594             +0.0000
iter:  49  11:07:47 -12.08  -6.72    -5.22-226.226594             +0.0000
iter:  50  11:08:37 -12.14  -6.80    -5.00-226.226594             +0.0000
iter:  51  11:09:27 -11.72  -6.88    -4.71-226.226594             +0.0000
iter:  52  11:10:17 -12.33  -7.13    -5.09-226.226594             +0.0000
iter:  53  11:11:06 -13.24  -7.22    -5.44-226.226594             +0.0000
iter:  54  11:11:56 -12.41  -7.27    -4.94-226.226594             +0.0000
iter:  55  11:12:46 -12.81  -7.43    -5.23-226.226594             +0.0000
iter:  56  11:13:36 -13.57  -7.49    -5.73-226.226594             +0.0000
iter:  57  11:14:26 -13.48  -7.73    -5.65-226.226594             +0.0000
iter:  58  11:15:16 -14.13  -7.79    -5.89-226.226594             +0.0000
iter:  59  11:16:06 -13.33  -7.84    -5.58-226.226594             +0.0000
iter:  60  11:16:56 -14.16  -7.96    -6.10-226.226594             +0.0000

Converged after 60 iterations.

Dipole moment: (10.672701, 1.417009, -6.268397) |e|*Ang

Total magnetic moment: (0.000000, 0.000000, 0.000000)
Local magnetic moments:
   0 O  ( 0.000000,  0.000000, -0.000550)
   1 O  ( 0.000000,  0.000000,  0.000148)
   2 O  ( 0.000000,  0.000000,  0.000548)
   3 O  ( 0.000000,  0.000000, -0.000545)
   4 O  ( 0.000000,  0.000000,  0.000530)
   5 O  ( 0.000000,  0.000000, -0.000519)
   6 O  ( 0.000000,  0.000000, -0.000322)
   7 O  ( 0.000000,  0.000000,  0.000698)
   8 O  ( 0.000000,  0.000000,  0.028681)
   9 O  ( 0.000000,  0.000000, -0.028690)
  10 O  ( 0.000000,  0.000000, -0.028899)
  11 O  ( 0.000000,  0.000000,  0.028684)
  12 Mn ( 0.000000,  0.000000,  4.449455)
  13 Mn ( 0.000000,  0.000000, -4.448409)
  14 Mn ( 0.000000,  0.000000, -4.448261)
  15 Mn ( 0.000000,  0.000000,  4.448227)
  16 P  ( 0.000000,  0.000000,  0.001544)
  17 P  ( 0.000000,  0.000000, -0.001843)
  18 P  ( 0.000000,  0.000000, -0.001565)
  19 P  ( 0.000000,  0.000000,  0.001526)
  20 O  ( 0.000000,  0.000000,  0.025272)
  21 O  ( 0.000000,  0.000000, -0.025432)
  22 O  ( 0.000000,  0.000000, -0.025293)
  23 O  ( 0.000000,  0.000000,  0.025306)
  24 Li ( 0.000000,  0.000000, -0.000016)
  25 Li ( 0.000000,  0.000000, -0.000001)
  26 Li ( 0.000000,  0.000000, -0.000001)
  27 Li ( 0.000000,  0.000000, -0.000001)

Energy contributions relative to reference atoms: (reference = -196157.275402)

Kinetic:       +217.880124
Potential:     -195.645864
External:        +0.000000
XC:            -250.500908
Entropy (-ST):   -0.000000
Local:           +2.040054
Free energy:   -226.226594
Extrapolated:  -226.226594

Spin contamination: 9.561371 electrons
Showing only first 2 kpts
                      Up                     Down
 Kpt  Band  Eigenvalues  Occupancy  Eigenvalues  Occupancy
  0    88      5.10290    0.00694      5.11268    0.00694
  0    89      5.12905    0.00694      5.13706    0.00694
  0    90      7.29125    0.00000      7.28277    0.00000
  0    91      7.30911    0.00000      7.30308    0.00000

  1    88      5.12895    0.00694      5.13834    0.00694
  1    89      5.15924    0.00694      5.16771    0.00694
  1    90      7.23436    0.00000      7.22528    0.00000
  1    91      7.24726    0.00000      7.24078    0.00000

Fermi level: 6.30267

Gap: 1.965 eV
Transition (v -> c):
  (s=1, k=70, n=89, [-0.08, 0.42, 0.12]) -> (s=1, k=57, n=90, [-0.08, -0.08, -0.12])
Writing to born-0.01-1y-.gpw (mode='all')