User:   madkru@g043.nifl.fysik.dtu.dk
Date:   Tue Mar 30 23:49:42 2021
Arch:   x86_64
Pid:    39387
Python: 3.8.6
gpaw:   /home/niflheim/madkru/venv_madkru/gpaw/gpaw (e6f0d78a31)
_gpaw:  /home/niflheim/madkru/venv_madkru/gpaw/build/lib.linux-x86_64-sandybridge-3.8/
        _gpaw.cpython-38-x86_64-linux-gnu.so (e6f0d78a31)
ase:    /home/niflheim/madkru/venv_madkru/ase/ase (version 3.22.0b1-4d5a73cb29)
numpy:  /home/modules/software/SciPy-bundle/2020.11-foss-2020b/lib/python3.8/site-packages/numpy (version 1.19.4)
scipy:  /home/modules/software/SciPy-bundle/2020.11-foss-2020b/lib/python3.8/site-packages/scipy (version 1.5.4)
units:  Angstrom and eV
cores: 64
OpenMP: False
OMP_NUM_THREADS: 1

Input parameters:
  convergence: {bands: occupied,
                density: 0.0001,
                eigenstates: 4e-08,
                energy: 0.0005,
                forces: 1e-06}
  kpts: [6 6 4]
  maxiter: 1000
  mode: {ecut: 600.0,
         gammacentered: False,
         name: pw}
  occupations: {fixmagmom: False,
                name: fermi-dirac,
                width: 0.001}
  symmetry: {point_group: False,
             time_reversal: False}

System changes: positions, numbers, cell, pbc, initial_charges, initial_magmoms

Initialize ...

O-setup:
  name: Oxygen
  id: 9b9d51c344dea68c822856295a461509
  Z: 8.0
  valence: 6
  core: 2
  charge: 0.0
  file: /home/modules/software/GPAW-setups/0.9.20000/O.LDA.gz
  compensation charges: gauss, rc=0.21, lmax=2
  cutoffs: 1.17(filt), 0.83(core),
  valence states:
                energy  radius
    2s(2.00)   -23.752   0.688
    2p(4.00)    -9.195   0.598
    *s           3.459   0.688
    *p          18.016   0.598
    *d           0.000   0.619

  Using partial waves for O as LCAO basis

Mn-setup:
  name: Manganese
  id: 0d715a8018be061a6e9ea6f2d364ac92
  Z: 25.0
  valence: 15
  core: 10
  charge: 0.0
  file: /home/modules/software/GPAW-setups/0.9.20000/Mn.LDA.gz
  compensation charges: gauss, rc=0.38, lmax=2
  cutoffs: 2.14(filt), 0.86(core),
  valence states:
                energy  radius
    3s(2.00)   -85.387   1.275
    4s(2.00)    -5.282   1.275
    3p(6.00)   -54.493   1.281
    4p(0.00)    -1.471   1.281
    3d(5.00)    -7.009   1.138
    *d          20.203   1.138

[...]

P-setup:
  name: Phosphorus
  id: a5561c299094968922a179ab894d2e2d
  Z: 15.0
  valence: 5
  core: 10
  charge: 0.0
  file: /home/modules/software/GPAW-setups/0.9.20000/P.LDA.gz
  compensation charges: gauss, rc=0.30, lmax=2
  cutoffs: 1.69(filt), 1.81(core),
  valence states:
                energy  radius
    3s(2.00)   -14.015   0.953
    3p(3.00)    -5.596   0.953
    *s          13.197   0.953
    *p          21.615   0.953
    *d           0.000   0.953

[...]

Li-setup:
  name: Lithium
  id: b73562207f97a71b6967473b66fe8b65
  Z: 3.0
  valence: 1
  core: 2
  charge: 0.0
  file: /home/modules/software/GPAW-setups/0.9.20000/Li.LDA.gz
  compensation charges: gauss, rc=0.33, lmax=2
  cutoffs: 1.91(filt), 2.55(core),
  valence states:
                energy  radius
    2s(1.00)    -2.874   1.058
    2p(0.00)    -1.126   1.058
    *s          24.338   1.058

  Using partial waves for Li as LCAO basis

Reference energy: -196157.275402

Spin-polarized calculation.
Magnetic moment: 0.000000

Convergence criteria:
  Maximum total energy change: 0.0005 eV / electron
  Maximum integral of absolute density change: 0.0001 electrons
  Maximum integral of absolute eigenstate change: 4e-08 eV^2
  Maximum change in atomic force: 1e-06 eV / Ang
  Maximum number of iterations: 1000

Symmetries present (total): 1

  ( 1  0  0)
  ( 0  1  0)
  ( 0  0  1)

144 k-points: 6 x 6 x 4 Monkhorst-Pack grid
144 k-points in the irreducible part of the Brillouin zone
       k-points in crystal coordinates                weights
   0:    -0.41666667   -0.41666667   -0.37500000          1/144
   1:    -0.41666667   -0.41666667   -0.12500000          1/144
   2:    -0.41666667   -0.41666667    0.12500000          1/144
   3:    -0.41666667   -0.41666667    0.37500000          1/144
   4:    -0.41666667   -0.25000000   -0.37500000          1/144
   5:    -0.41666667   -0.25000000   -0.12500000          1/144
   6:    -0.41666667   -0.25000000    0.12500000          1/144
   7:    -0.41666667   -0.25000000    0.37500000          1/144
   8:    -0.41666667   -0.08333333   -0.37500000          1/144
   9:    -0.41666667   -0.08333333   -0.12500000          1/144
          ...
 143:     0.41666667    0.41666667    0.37500000          1/144

Wave functions: Plane wave expansion
  Cutoff energy: 600.000 eV
  Number of coefficients (min, max): 10068, 10125
  Pulay-stress correction: 0.000000 eV/Ang^3 (de/decut=0.000000)
  Using FFTW library
  ScaLapack parameters: grid=1x1, blocksize=None
  Wavefunction extrapolation:
    Improved wavefunction reuse through dual PAW basis

  Fermi-Dirac: width=0.0010 eV

Eigensolver
   Davidson(niter=2)

Densities:
  Coarse grid: 60*35*27 grid
  Fine grid: 120*70*54 grid
  Total Charge: 0.000000

Density mixing:
  Method: difference
  Backend: pulay
  Linear mixing parameter: 0.05
  Mixing with 5 old densities
  Damping of long wave oscillations: 50

Hamiltonian:
  XC and Coulomb potentials evaluated on a 120*70*54 grid
  Using the LDA Exchange-Correlation functional

Total number of cores used: 64
Parallelization over k-points: 16
Domain decomposition: 2 x 2 x 1

Number of atoms: 28
Number of atomic orbitals: 148
Number of bands in calculation: 112
Number of valence electrons: 180
Bands to converge: occupied

... initialized

Initializing position-dependent things.

Density initialized from atomic densities
Creating initial wave functions:
  112 bands from LCAO basis set

    /|         OP              |
   / |O            O        O  |
  /  |       O            O  P |
 *   |O    Mn      O           |
 |   |          OLi          O |
 |   .P-O--------------Mn------.
 |  /          Li    O  Mn  O /
 | /Li O           PO        /
 |/       Mn                /
 *Li-----------------------*

Positions:
   0 O     -1.360678   -2.541161   -1.202221    ( 0.0000,  0.0000,  0.0000)
   1 O     -3.121941    2.976855    1.167242    ( 0.0000,  0.0000,  0.0000)
   2 O      2.107533    0.508090    1.540712    ( 0.0000,  0.0000,  0.0000)
   3 O      3.869373   -0.072395   -0.828750    ( 0.0000,  0.0000,  0.0000)
   4 O      2.107821    2.976875    1.540792    ( 0.0000,  0.0000,  0.0000)
   5 O      3.869084   -2.541141   -0.828671    ( 0.0000,  0.0000,  0.0000)
   6 O     -1.360390   -0.072375   -1.202141    ( 0.0000,  0.0000,  0.0000)
   7 O     -3.122230    0.508109    1.167321    ( 0.0000,  0.0000,  0.0000)
   8 O     -4.413461   -1.306992   -0.794251    ( 0.0000,  0.0000,  0.0000)
   9 O     -0.069585    1.742707    1.575662    ( 0.0000,  0.0000,  0.0000)
  10 O      5.160604    1.742707    1.132822    ( 0.0000,  0.0000,  0.0000)
  11 O      0.816728   -1.306992   -1.237091    ( 0.0000,  0.0000,  0.0000)
  12 Mn    -2.570809   -1.307302    0.247161    ( 0.0000,  0.0000,  1.0000)
  13 Mn    -1.912021    1.743016   -2.122906    ( 0.0000,  0.0000, -1.0000)
  14 Mn     3.317952    1.743017    0.101411    ( 0.0000,  0.0000, -1.0000)
  15 Mn     2.659164   -1.307302    2.461478    ( 0.0000,  0.0000,  1.0000)
  16 P     -0.620664   -1.306816   -1.828465    ( 0.0000,  0.0000,  0.0000)
  17 P     -3.862097    1.742530    0.541238    ( 0.0000,  0.0000,  0.0000)
  18 P      1.367807    1.742530    2.167036    ( 0.0000,  0.0000,  0.0000)
  19 P      4.609240   -1.306816   -0.202666    ( 0.0000,  0.0000,  0.0000)
  20 O     -0.646437   -1.306845    1.374751    ( 0.0000,  0.0000,  0.0000)
  21 O     -3.836504    1.742559   -0.995565    ( 0.0000,  0.0000,  0.0000)
  22 O      1.393580    1.742559   -1.036179    ( 0.0000,  0.0000,  0.0000)
  23 O      4.583647   -1.306845    1.334136    ( 0.0000,  0.0000,  0.0000)
  24 Li    -4.856429   -2.832143   -2.200714    ( 0.0000,  0.0000,  0.0000)
  25 Li     0.373571   -2.832143    0.169286    ( 0.0000,  0.0000,  0.0000)
  26 Li    -4.856429    0.217857   -2.200714    ( 0.0000,  0.0000,  0.0000)
  27 Li     0.373571    0.217857    0.169286    ( 0.0000,  0.0000,  0.0000)

Unit cell:
           periodic     x           y           z      points  spacing
  1. axis:    yes   10.460000    0.000000    0.000000    60     0.1743
  2. axis:    yes    0.000000    6.100000    0.000000    35     0.1743
  3. axis:    yes    0.000000    0.000000    4.740000    27     0.1756

  Lengths:  10.460000   6.100000   4.740000
  Angles:   90.000000  90.000000  90.000000

Effective grid spacing dv^(1/3) = 0.1747

                     log10-error:           total        iterations:
           time      wfs    density  force  energy       poisson  magmom
iter:   1  23:51:17                       -231.918502             +0.0000
iter:   2  23:51:39  -0.55  -0.94         -231.723008             +0.0005
iter:   3  23:52:00  -0.72  -0.98         -220.570227             +0.0007
iter:   4  23:52:21  -0.94  -1.20         -218.844955             +0.0002
iter:   5  23:52:43  -1.92  -1.36         -222.466671             +0.0001
iter:   6  23:53:04  -1.98  -1.41         -220.926764             -0.0237
iter:   7  23:53:25  -2.00  -1.63         -224.351921             -0.3211
iter:   8  23:53:47  -2.23  -1.77         -225.744762             -0.6924
iter:   9  23:54:08  -2.59  -1.81         -226.624229             -0.3384
iter:  10  23:54:29  -1.69  -1.82         -226.637090             -0.0015
iter:  11  23:54:50  -2.33  -2.04         -226.654413             -0.0186
iter:  12  23:55:12  -1.66  -2.14         -226.513910             -0.0115
iter:  13  23:55:33  -2.23  -2.37         -226.282481             -0.0050
iter:  14  23:55:54  -3.39  -2.54         -226.262913             -0.0011
iter:  15  23:56:15  -2.98  -2.65         -226.233167             +0.0001
iter:  16  23:56:36  -4.27  -2.94         -226.231603             -0.0005
iter:  17  23:56:58  -4.20  -2.95         -226.229651             +0.0005
iter:  18  23:57:19  -3.81  -3.02         -226.231847             +0.0001
iter:  19  23:57:40  -4.94  -3.28         -226.229517             +0.0002
iter:  20  23:58:01  -4.73  -3.34         -226.228358             +0.0001
iter:  21  23:58:22  -4.69  -3.63         -226.227882             +0.0000
iter:  22  23:58:44  -5.77  -3.91         -226.227770             +0.0000
iter:  23  23:59:05  -6.40  -3.98         -226.227769             +0.0000
iter:  24  23:59:26  -5.69  -4.03         -226.227788             +0.0000
iter:  25  23:59:47  -6.23  -4.23         -226.227745             +0.0000
iter:  26  00:00:08  -7.17  -4.50         -226.227745             +0.0000
iter:  27  00:00:30  -7.18  -4.53         -226.227743             -0.0000
iter:  28  00:00:51  -6.77  -4.72         -226.227746             +0.0000
iter:  29  00:01:18  -7.48  -4.74         -226.227741             -0.0000
iter:  30  00:01:39  -7.32  -4.94         -226.227740             -0.0000
iter:  31  00:02:05  -8.22  -5.22    -2.68-226.227740             -0.0000
iter:  32  00:02:32  -8.30  -5.31    -2.89-226.227740             -0.0000
iter:  33  00:02:59  -8.91  -5.69    -3.38-226.227740             -0.0000
iter:  34  00:03:26  -9.69  -5.72    -3.53-226.227740             -0.0000
iter:  35  00:03:53  -9.03  -5.80    -3.31-226.227740             -0.0000
iter:  36  00:04:19  -9.56  -5.84    -3.49-226.227740             -0.0000
iter:  37  00:04:46  -9.44  -6.03    -3.59-226.227740             -0.0000
iter:  38  00:05:13 -10.31  -6.06    -3.79-226.227740             -0.0000
iter:  39  00:05:39 -11.31  -6.18    -4.41-226.227740             -0.0000
iter:  40  00:06:06 -11.02  -6.23    -4.17-226.227740             -0.0000
iter:  41  00:06:33 -10.50  -6.29    -4.14-226.227740             -0.0000
iter:  42  00:06:59 -11.28  -6.34    -4.31-226.227740             -0.0000
iter:  43  00:07:26 -10.82  -6.39    -4.20-226.227740             +0.0000
iter:  44  00:07:53 -11.20  -6.46    -4.25-226.227740             -0.0000
iter:  45  00:08:20 -11.03  -6.68    -4.36-226.227740             +0.0000
iter:  46  00:08:46 -11.29  -6.85    -4.47-226.227740             -0.0000
iter:  47  00:09:13 -12.01  -7.16    -5.04-226.227740             -0.0000
iter:  48  00:09:40 -12.04  -7.26    -4.87-226.227740             -0.0000
iter:  49  00:10:06 -12.77  -7.38    -5.12-226.227740             -0.0000
iter:  50  00:10:33 -13.42  -7.53    -5.61-226.227740             -0.0000
iter:  51  00:11:00 -12.76  -7.57    -5.21-226.227740             -0.0000
iter:  52  00:11:27 -13.13  -7.71    -5.28-226.227740             -0.0000
iter:  53  00:11:53 -14.09  -7.92    -6.32-226.227740             -0.0000

Converged after 53 iterations.

Dipole moment: (10.672154, 1.410615, -6.455977) |e|*Ang

Total magnetic moment: (0.000000, 0.000000, -0.000000)
Local magnetic moments:
   0 O  ( 0.000000,  0.000000, -0.000518)
   1 O  ( 0.000000,  0.000000,  0.000503)
   2 O  ( 0.000000,  0.000000,  0.000166)
   3 O  ( 0.000000,  0.000000, -0.000331)
   4 O  ( 0.000000,  0.000000,  0.000146)
   5 O  ( 0.000000,  0.000000, -0.000311)
   6 O  ( 0.000000,  0.000000, -0.000538)
   7 O  ( 0.000000,  0.000000,  0.000523)
   8 O  ( 0.000000,  0.000000,  0.028768)
   9 O  ( 0.000000,  0.000000, -0.028711)
  10 O  ( 0.000000,  0.000000, -0.028887)
  11 O  ( 0.000000,  0.000000,  0.028677)
  12 Mn ( 0.000000,  0.000000,  4.448172)
  13 Mn ( 0.000000,  0.000000, -4.448270)
  14 Mn ( 0.000000,  0.000000, -4.448013)
  15 Mn ( 0.000000,  0.000000,  4.448058)
  16 P  ( 0.000000,  0.000000,  0.001558)
  17 P  ( 0.000000,  0.000000, -0.001645)
  18 P  ( 0.000000,  0.000000, -0.001569)
  19 P  ( 0.000000,  0.000000,  0.001704)
  20 O  ( 0.000000,  0.000000,  0.025302)
  21 O  ( 0.000000,  0.000000, -0.025308)
  22 O  ( 0.000000,  0.000000, -0.025097)
  23 O  ( 0.000000,  0.000000,  0.025355)
  24 Li ( 0.000000,  0.000000, -0.000001)
  25 Li ( 0.000000,  0.000000, -0.000002)
  26 Li ( 0.000000,  0.000000, -0.000001)
  27 Li ( 0.000000,  0.000000, -0.000002)

Energy contributions relative to reference atoms: (reference = -196157.275402)

Kinetic:       +217.396743
Potential:     -195.271566
External:        +0.000000
XC:            -250.393929
Entropy (-ST):   -0.000000
Local:           +2.041012
Free energy:   -226.227740
Extrapolated:  -226.227740

Spin contamination: 9.560025 electrons
Showing only first 2 kpts
                      Up                     Down
 Kpt  Band  Eigenvalues  Occupancy  Eigenvalues  Occupancy
  0    88      5.10952    1.00000      5.10774    1.00000
  0    89      5.13393    1.00000      5.13229    1.00000
  0    90      7.29125    0.00000      7.28878    0.00000
  0    91      7.30957    0.00000      7.30656    0.00000

  1    88      5.13545    1.00000      5.13396    1.00000
  1    89      5.16459    1.00000      5.16360    1.00000
  1    90      7.23289    0.00000      7.23150    0.00000
  1    91      7.24543    0.00000      7.24394    0.00000

Fermi level: 6.36193

Gap: 1.973 eV
Transition (v -> c):
  (s=0, k=73, n=89, [0.08, -0.42, -0.12]) -> (s=1, k=57, n=90, [-0.08, -0.08, -0.12])
Writing to born-0.01-14z+.gpw (mode='all')