User:   madkru@i009.nifl.fysik.dtu.dk
Date:   Fri Apr  2 07:26:47 2021
Arch:   x86_64
Pid:    31381
Python: 3.8.6
gpaw:   /home/niflheim/madkru/venv_madkru/gpaw/gpaw (e6f0d78a31)
_gpaw:  /home/niflheim/madkru/venv_madkru/gpaw/build/lib.linux-x86_64-ivybridge-3.8/
        _gpaw.cpython-38-x86_64-linux-gnu.so (e6f0d78a31)
ase:    /home/niflheim/madkru/venv_madkru/ase/ase (version 3.22.0b1-4d5a73cb29)
numpy:  /home/modules/software/SciPy-bundle/2020.11-foss-2020b/lib/python3.8/site-packages/numpy (version 1.19.4)
scipy:  /home/modules/software/SciPy-bundle/2020.11-foss-2020b/lib/python3.8/site-packages/scipy (version 1.5.4)
units:  Angstrom and eV
cores: 64
OpenMP: False
OMP_NUM_THREADS: 1

Input parameters:
  convergence: {bands: occupied,
                density: 0.0001,
                eigenstates: 4e-08,
                energy: 0.0005,
                forces: 1e-06}
  kpts: [6 6 4]
  maxiter: 1000
  mode: {ecut: 600.0,
         gammacentered: False,
         name: pw}
  occupations: {fixmagmom: False,
                name: fermi-dirac,
                width: 0.001}
  symmetry: {point_group: False,
             time_reversal: False}

System changes: positions, numbers, cell, pbc, initial_charges, initial_magmoms

Initialize ...

O-setup:
  name: Oxygen
  id: 9b9d51c344dea68c822856295a461509
  Z: 8.0
  valence: 6
  core: 2
  charge: 0.0
  file: /home/modules/software/GPAW-setups/0.9.20000/O.LDA.gz
  compensation charges: gauss, rc=0.21, lmax=2
  cutoffs: 1.17(filt), 0.83(core),
  valence states:
                energy  radius
    2s(2.00)   -23.752   0.688
    2p(4.00)    -9.195   0.598
    *s           3.459   0.688
    *p          18.016   0.598
    *d           0.000   0.619

  Using partial waves for O as LCAO basis

Mn-setup:
  name: Manganese
  id: 0d715a8018be061a6e9ea6f2d364ac92
  Z: 25.0
  valence: 15
  core: 10
  charge: 0.0
  file: /home/modules/software/GPAW-setups/0.9.20000/Mn.LDA.gz
  compensation charges: gauss, rc=0.38, lmax=2
  cutoffs: 2.14(filt), 0.86(core),
  valence states:
                energy  radius
    3s(2.00)   -85.387   1.275
    4s(2.00)    -5.282   1.275
    3p(6.00)   -54.493   1.281
    4p(0.00)    -1.471   1.281
    3d(5.00)    -7.009   1.138
    *d          20.203   1.138

[...]

P-setup:
  name: Phosphorus
  id: a5561c299094968922a179ab894d2e2d
  Z: 15.0
  valence: 5
  core: 10
  charge: 0.0
  file: /home/modules/software/GPAW-setups/0.9.20000/P.LDA.gz
  compensation charges: gauss, rc=0.30, lmax=2
  cutoffs: 1.69(filt), 1.81(core),
  valence states:
                energy  radius
    3s(2.00)   -14.015   0.953
    3p(3.00)    -5.596   0.953
    *s          13.197   0.953
    *p          21.615   0.953
    *d           0.000   0.953

[...]

Li-setup:
  name: Lithium
  id: b73562207f97a71b6967473b66fe8b65
  Z: 3.0
  valence: 1
  core: 2
  charge: 0.0
  file: /home/modules/software/GPAW-setups/0.9.20000/Li.LDA.gz
  compensation charges: gauss, rc=0.33, lmax=2
  cutoffs: 1.91(filt), 2.55(core),
  valence states:
                energy  radius
    2s(1.00)    -2.874   1.058
    2p(0.00)    -1.126   1.058
    *s          24.338   1.058

  Using partial waves for Li as LCAO basis

Reference energy: -196157.275402

Spin-polarized calculation.
Magnetic moment: 0.000000

Convergence criteria:
  Maximum total energy change: 0.0005 eV / electron
  Maximum integral of absolute density change: 0.0001 electrons
  Maximum integral of absolute eigenstate change: 4e-08 eV^2
  Maximum change in atomic force: 1e-06 eV / Ang
  Maximum number of iterations: 1000

Symmetries present (total): 1

  ( 1  0  0)
  ( 0  1  0)
  ( 0  0  1)

144 k-points: 6 x 6 x 4 Monkhorst-Pack grid
144 k-points in the irreducible part of the Brillouin zone
       k-points in crystal coordinates                weights
   0:    -0.41666667   -0.41666667   -0.37500000          1/144
   1:    -0.41666667   -0.41666667   -0.12500000          1/144
   2:    -0.41666667   -0.41666667    0.12500000          1/144
   3:    -0.41666667   -0.41666667    0.37500000          1/144
   4:    -0.41666667   -0.25000000   -0.37500000          1/144
   5:    -0.41666667   -0.25000000   -0.12500000          1/144
   6:    -0.41666667   -0.25000000    0.12500000          1/144
   7:    -0.41666667   -0.25000000    0.37500000          1/144
   8:    -0.41666667   -0.08333333   -0.37500000          1/144
   9:    -0.41666667   -0.08333333   -0.12500000          1/144
          ...
 143:     0.41666667    0.41666667    0.37500000          1/144

Wave functions: Plane wave expansion
  Cutoff energy: 600.000 eV
  Number of coefficients (min, max): 10068, 10125
  Pulay-stress correction: 0.000000 eV/Ang^3 (de/decut=0.000000)
  Using FFTW library
  ScaLapack parameters: grid=1x1, blocksize=None
  Wavefunction extrapolation:
    Improved wavefunction reuse through dual PAW basis

  Fermi-Dirac: width=0.0010 eV

Eigensolver
   Davidson(niter=2)

Densities:
  Coarse grid: 60*35*27 grid
  Fine grid: 120*70*54 grid
  Total Charge: 0.000000

Density mixing:
  Method: difference
  Backend: pulay
  Linear mixing parameter: 0.05
  Mixing with 5 old densities
  Damping of long wave oscillations: 50

Hamiltonian:
  XC and Coulomb potentials evaluated on a 120*70*54 grid
  Using the LDA Exchange-Correlation functional

Total number of cores used: 64
Parallelization over k-points: 16
Domain decomposition: 2 x 2 x 1

Number of atoms: 28
Number of atomic orbitals: 148
Number of bands in calculation: 112
Number of valence electrons: 180
Bands to converge: occupied

... initialized

Initializing position-dependent things.

Density initialized from atomic densities
Creating initial wave functions:
  112 bands from LCAO basis set

    /|         OP              |
   / |O            O        O  |
  /  |       O            O  P |
 *   |O    Mn      O           |
 |   |          OLi          O |
 |   .P-O--------------Mn------.
 |  /          Li    O  Mn  O /
 | /Li O           PO        /
 |/       Mn                /
 *Li-----------------------*

Positions:
   0 O     -1.360678   -2.541161   -1.202221    ( 0.0000,  0.0000,  0.0000)
   1 O     -3.121941    2.976855    1.167242    ( 0.0000,  0.0000,  0.0000)
   2 O      2.107533    0.508090    1.540712    ( 0.0000,  0.0000,  0.0000)
   3 O      3.869373   -0.072395   -0.828750    ( 0.0000,  0.0000,  0.0000)
   4 O      2.107821    2.976875    1.540792    ( 0.0000,  0.0000,  0.0000)
   5 O      3.869084   -2.541141   -0.828671    ( 0.0000,  0.0000,  0.0000)
   6 O     -1.360390   -0.072375   -1.202141    ( 0.0000,  0.0000,  0.0000)
   7 O     -3.122230    0.508109    1.167321    ( 0.0000,  0.0000,  0.0000)
   8 O     -4.413461   -1.306992   -0.794251    ( 0.0000,  0.0000,  0.0000)
   9 O     -0.069585    1.742707    1.575662    ( 0.0000,  0.0000,  0.0000)
  10 O      5.160604    1.742707    1.132822    ( 0.0000,  0.0000,  0.0000)
  11 O      0.816728   -1.306992   -1.237091    ( 0.0000,  0.0000,  0.0000)
  12 Mn    -2.570809   -1.307302    0.247161    ( 0.0000,  0.0000,  1.0000)
  13 Mn    -1.912021    1.743016   -2.122906    ( 0.0000,  0.0000, -1.0000)
  14 Mn     3.317952    1.743017    0.091411    ( 0.0000,  0.0000, -1.0000)
  15 Mn     2.659164   -1.307302    2.461478    ( 0.0000,  0.0000,  1.0000)
  16 P     -0.620664   -1.306816   -1.828465    ( 0.0000,  0.0000,  0.0000)
  17 P     -3.862097    1.742530    0.541238    ( 0.0000,  0.0000,  0.0000)
  18 P      1.367807    1.742530    2.167036    ( 0.0000,  0.0000,  0.0000)
  19 P      4.609240   -1.306816   -0.202666    ( 0.0000,  0.0000,  0.0000)
  20 O     -0.646437   -1.306845    1.374751    ( 0.0000,  0.0000,  0.0000)
  21 O     -3.836504    1.742559   -0.995565    ( 0.0000,  0.0000,  0.0000)
  22 O      1.393580    1.742559   -1.036179    ( 0.0000,  0.0000,  0.0000)
  23 O      4.583647   -1.306845    1.334136    ( 0.0000,  0.0000,  0.0000)
  24 Li    -4.856429   -2.832143   -2.200714    ( 0.0000,  0.0000,  0.0000)
  25 Li     0.373571   -2.832143    0.159286    ( 0.0000,  0.0000,  0.0000)
  26 Li    -4.856429    0.217857   -2.200714    ( 0.0000,  0.0000,  0.0000)
  27 Li     0.373571    0.217857    0.169286    ( 0.0000,  0.0000,  0.0000)

Unit cell:
           periodic     x           y           z      points  spacing
  1. axis:    yes   10.460000    0.000000    0.000000    60     0.1743
  2. axis:    yes    0.000000    6.100000    0.000000    35     0.1743
  3. axis:    yes    0.000000    0.000000    4.740000    27     0.1756

  Lengths:  10.460000   6.100000   4.740000
  Angles:   90.000000  90.000000  90.000000

Effective grid spacing dv^(1/3) = 0.1747

                     log10-error:           total        iterations:
           time      wfs    density  force  energy       poisson  magmom
iter:   1  07:28:17                       -231.920315             +0.0000
iter:   2  07:28:37  -0.55  -0.94         -231.730956             +0.0047
iter:   3  07:28:58  -0.72  -0.98         -220.584910             +0.0059
iter:   4  07:29:19  -0.96  -1.20         -218.866337             +0.0019
iter:   5  07:29:40  -1.94  -1.36         -221.262998             +0.0013
iter:   6  07:30:00  -1.99  -1.50         -219.979548             +0.0007
iter:   7  07:30:21  -2.21  -1.68         -223.058443             +0.2295
iter:   8  07:30:42  -2.74  -1.89         -220.026632             +0.3226
iter:   9  07:31:02  -2.15  -1.93         -225.466809             +0.6218
iter:  10  07:31:23  -2.27  -1.87         -227.353163             -0.1240
iter:  11  07:31:43  -2.77  -1.82         -227.143795             -0.0237
iter:  12  07:32:04  -2.05  -1.83         -227.066272             -0.0043
iter:  13  07:32:25  -2.55  -1.84         -227.090364             -0.0084
iter:  14  07:32:46  -2.56  -1.97         -227.031071             -0.0002
iter:  15  07:33:06  -2.13  -2.07         -226.551662             -0.0004
iter:  16  07:33:27  -2.48  -2.23         -226.401301             -0.0001
iter:  17  07:33:48  -2.58  -2.33         -226.408776             -0.0001
iter:  18  07:34:08  -3.77  -2.41         -226.375470             -0.0000
iter:  19  07:34:29  -2.31  -2.45         -226.264911             +0.0000
iter:  20  07:34:50  -3.38  -2.79         -226.249818             +0.0000
iter:  21  07:35:11  -4.40  -2.87         -226.247041             -0.0000
iter:  22  07:35:31  -3.53  -2.92         -226.229575             -0.0000
iter:  23  07:35:52  -3.93  -3.07         -226.232614             -0.0000
iter:  24  07:36:13  -4.81  -3.15         -226.232568             -0.0000
iter:  25  07:36:33  -4.86  -3.22         -226.229929             -0.0000
iter:  26  07:36:54  -4.58  -3.28         -226.228275             -0.0000
iter:  27  07:37:15  -5.40  -3.40         -226.228298             -0.0000
iter:  28  07:37:35  -5.30  -3.45         -226.228267             +0.0000
iter:  29  07:37:56  -5.37  -3.53         -226.228245             +0.0000
iter:  30  07:38:17  -5.55  -3.54         -226.228305             +0.0000
iter:  31  07:38:37  -5.41  -3.56         -226.228078             +0.0000
iter:  32  07:38:58  -5.26  -3.62         -226.228208             +0.0000
iter:  33  07:39:19  -5.57  -3.82         -226.227965             +0.0000
iter:  34  07:39:39  -6.30  -4.05         -226.227948             +0.0000
iter:  35  07:40:00  -5.95  -4.12         -226.227948             +0.0000
iter:  36  07:40:21  -7.04  -4.22         -226.227931             +0.0000
iter:  37  07:40:41  -6.15  -4.26         -226.227925             +0.0000
iter:  38  07:41:02  -7.16  -4.61         -226.227918             +0.0000
iter:  39  07:41:23  -6.86  -4.77         -226.227914             +0.0000
iter:  40  07:41:49  -8.24  -4.83         -226.227913             +0.0000
iter:  41  07:42:14  -7.46  -4.88    -2.53-226.227914             -0.0000
iter:  42  07:42:40  -7.63  -5.08    -2.73-226.227912             -0.0000
iter:  43  07:43:06  -8.65  -5.25    -3.28-226.227912             -0.0000
iter:  44  07:43:32  -9.21  -5.30    -3.32-226.227912             -0.0000
iter:  45  07:43:58  -9.03  -5.35    -3.03-226.227912             -0.0000
iter:  46  07:44:24  -9.49  -5.62    -3.91-226.227912             -0.0000
iter:  47  07:44:50 -10.65  -5.75    -4.18-226.227912             -0.0000
iter:  48  07:45:15  -9.78  -5.78    -3.73-226.227912             -0.0000
iter:  49  07:45:41 -10.47  -6.00    -4.29-226.227912             -0.0000
iter:  50  07:46:07 -10.55  -6.06    -4.05-226.227912             -0.0000
iter:  51  07:46:33 -10.17  -6.14    -3.89-226.227912             -0.0000
iter:  52  07:46:59 -11.31  -6.29    -4.61-226.227912             -0.0000
iter:  53  07:47:25 -10.30  -6.36    -4.13-226.227912             -0.0000
iter:  54  07:47:51 -10.92  -6.70    -4.52-226.227912             -0.0000
iter:  55  07:48:16 -11.83  -6.78    -4.73-226.227912             -0.0000
iter:  56  07:48:42 -12.10  -6.84    -4.95-226.227912             -0.0000
iter:  57  07:49:08 -11.95  -6.89    -4.79-226.227912             -0.0000
iter:  58  07:49:34 -12.25  -7.12    -5.20-226.227912             -0.0000
iter:  59  07:50:00 -13.11  -7.25    -5.67-226.227912             -0.0000
iter:  60  07:50:26 -12.36  -7.29    -5.08-226.227912             +0.0000
iter:  61  07:50:52 -12.86  -7.50    -5.49-226.227912             +0.0000
iter:  62  07:51:17 -13.16  -7.61    -5.57-226.227912             +0.0000
iter:  63  07:51:43 -12.99  -7.75    -5.39-226.227912             +0.0000
iter:  64  07:52:09 -14.15  -7.92    -6.07-226.227912             +0.0000

Converged after 64 iterations.

Dipole moment: (10.670681, 1.412234, -6.219370) |e|*Ang

Total magnetic moment: (0.000000, 0.000000, 0.000000)
Local magnetic moments:
   0 O  ( 0.000000,  0.000000, -0.000524)
   1 O  ( 0.000000,  0.000000,  0.000536)
   2 O  ( 0.000000,  0.000000,  0.000542)
   3 O  ( 0.000000,  0.000000, -0.000553)
   4 O  ( 0.000000,  0.000000,  0.000513)
   5 O  ( 0.000000,  0.000000, -0.000531)
   6 O  ( 0.000000,  0.000000, -0.000534)
   7 O  ( 0.000000,  0.000000,  0.000554)
   8 O  ( 0.000000,  0.000000,  0.028690)
   9 O  ( 0.000000,  0.000000, -0.028742)
  10 O  ( 0.000000,  0.000000, -0.028695)
  11 O  ( 0.000000,  0.000000,  0.028661)
  12 Mn ( 0.000000,  0.000000,  4.448183)
  13 Mn ( 0.000000,  0.000000, -4.448228)
  14 Mn ( 0.000000,  0.000000, -4.448140)
  15 Mn ( 0.000000,  0.000000,  4.448254)
  16 P  ( 0.000000,  0.000000,  0.001558)
  17 P  ( 0.000000,  0.000000, -0.001543)
  18 P  ( 0.000000,  0.000000, -0.001557)
  19 P  ( 0.000000,  0.000000,  0.001543)
  20 O  ( 0.000000,  0.000000,  0.025333)
  21 O  ( 0.000000,  0.000000, -0.025300)
  22 O  ( 0.000000,  0.000000, -0.025296)
  23 O  ( 0.000000,  0.000000,  0.025312)
  24 Li ( 0.000000,  0.000000,  0.000000)
  25 Li ( 0.000000,  0.000000,  0.000008)
  26 Li ( 0.000000,  0.000000,  0.000000)
  27 Li ( 0.000000,  0.000000, -0.000001)

Energy contributions relative to reference atoms: (reference = -196157.275402)

Kinetic:       +217.352803
Potential:     -195.237667
External:        +0.000000
XC:            -250.384191
Entropy (-ST):   -0.000000
Local:           +2.041144
Free energy:   -226.227912
Extrapolated:  -226.227912

Spin contamination: 9.560411 electrons
Showing only first 2 kpts
                      Up                     Down
 Kpt  Band  Eigenvalues  Occupancy  Eigenvalues  Occupancy
  0    88      5.10983    1.00000      5.10994    1.00000
  0    89      5.13431    1.00000      5.13443    1.00000
  0    90      7.28865    0.00000      7.28864    0.00000
  0    91      7.30633    0.00000      7.30638    0.00000

  1    88      5.13553    1.00000      5.13570    1.00000
  1    89      5.16476    1.00000      5.16488    1.00000
  1    90      7.23152    0.00000      7.23136    0.00000
  1    91      7.24370    0.00000      7.24360    0.00000

Fermi level: 5.75350

Gap: 1.972 eV
Transition (v -> c):
  (s=1, k=70, n=89, [-0.08, 0.42, 0.12]) -> (s=1, k=61, n=90, [-0.08, 0.08, -0.12])
Writing to born-0.01-25z-.gpw (mode='all')