User:   madkru@i009.nifl.fysik.dtu.dk
Date:   Fri Apr  2 13:05:31 2021
Arch:   x86_64
Pid:    31381
Python: 3.8.6
gpaw:   /home/niflheim/madkru/venv_madkru/gpaw/gpaw (e6f0d78a31)
_gpaw:  /home/niflheim/madkru/venv_madkru/gpaw/build/lib.linux-x86_64-ivybridge-3.8/
        _gpaw.cpython-38-x86_64-linux-gnu.so (e6f0d78a31)
ase:    /home/niflheim/madkru/venv_madkru/ase/ase (version 3.22.0b1-4d5a73cb29)
numpy:  /home/modules/software/SciPy-bundle/2020.11-foss-2020b/lib/python3.8/site-packages/numpy (version 1.19.4)
scipy:  /home/modules/software/SciPy-bundle/2020.11-foss-2020b/lib/python3.8/site-packages/scipy (version 1.5.4)
units:  Angstrom and eV
cores: 64
OpenMP: False
OMP_NUM_THREADS: 1

Input parameters:
  convergence: {bands: occupied,
                density: 0.0001,
                eigenstates: 4e-08,
                energy: 0.0005,
                forces: 1e-06}
  kpts: [6 6 4]
  maxiter: 1000
  mode: {ecut: 600.0,
         gammacentered: False,
         name: pw}
  occupations: {fixmagmom: False,
                name: fermi-dirac,
                width: 0.001}
  symmetry: {point_group: False,
             time_reversal: False}

System changes: positions, numbers, cell, pbc, initial_charges, initial_magmoms

Initialize ...

O-setup:
  name: Oxygen
  id: 9b9d51c344dea68c822856295a461509
  Z: 8.0
  valence: 6
  core: 2
  charge: 0.0
  file: /home/modules/software/GPAW-setups/0.9.20000/O.LDA.gz
  compensation charges: gauss, rc=0.21, lmax=2
  cutoffs: 1.17(filt), 0.83(core),
  valence states:
                energy  radius
    2s(2.00)   -23.752   0.688
    2p(4.00)    -9.195   0.598
    *s           3.459   0.688
    *p          18.016   0.598
    *d           0.000   0.619

  Using partial waves for O as LCAO basis

Mn-setup:
  name: Manganese
  id: 0d715a8018be061a6e9ea6f2d364ac92
  Z: 25.0
  valence: 15
  core: 10
  charge: 0.0
  file: /home/modules/software/GPAW-setups/0.9.20000/Mn.LDA.gz
  compensation charges: gauss, rc=0.38, lmax=2
  cutoffs: 2.14(filt), 0.86(core),
  valence states:
                energy  radius
    3s(2.00)   -85.387   1.275
    4s(2.00)    -5.282   1.275
    3p(6.00)   -54.493   1.281
    4p(0.00)    -1.471   1.281
    3d(5.00)    -7.009   1.138
    *d          20.203   1.138

[...]

P-setup:
  name: Phosphorus
  id: a5561c299094968922a179ab894d2e2d
  Z: 15.0
  valence: 5
  core: 10
  charge: 0.0
  file: /home/modules/software/GPAW-setups/0.9.20000/P.LDA.gz
  compensation charges: gauss, rc=0.30, lmax=2
  cutoffs: 1.69(filt), 1.81(core),
  valence states:
                energy  radius
    3s(2.00)   -14.015   0.953
    3p(3.00)    -5.596   0.953
    *s          13.197   0.953
    *p          21.615   0.953
    *d           0.000   0.953

[...]

Li-setup:
  name: Lithium
  id: b73562207f97a71b6967473b66fe8b65
  Z: 3.0
  valence: 1
  core: 2
  charge: 0.0
  file: /home/modules/software/GPAW-setups/0.9.20000/Li.LDA.gz
  compensation charges: gauss, rc=0.33, lmax=2
  cutoffs: 1.91(filt), 2.55(core),
  valence states:
                energy  radius
    2s(1.00)    -2.874   1.058
    2p(0.00)    -1.126   1.058
    *s          24.338   1.058

  Using partial waves for Li as LCAO basis

Reference energy: -196157.275402

Spin-polarized calculation.
Magnetic moment: 0.000000

Convergence criteria:
  Maximum total energy change: 0.0005 eV / electron
  Maximum integral of absolute density change: 0.0001 electrons
  Maximum integral of absolute eigenstate change: 4e-08 eV^2
  Maximum change in atomic force: 1e-06 eV / Ang
  Maximum number of iterations: 1000

Symmetries present (total): 1

  ( 1  0  0)
  ( 0  1  0)
  ( 0  0  1)

144 k-points: 6 x 6 x 4 Monkhorst-Pack grid
144 k-points in the irreducible part of the Brillouin zone
       k-points in crystal coordinates                weights
   0:    -0.41666667   -0.41666667   -0.37500000          1/144
   1:    -0.41666667   -0.41666667   -0.12500000          1/144
   2:    -0.41666667   -0.41666667    0.12500000          1/144
   3:    -0.41666667   -0.41666667    0.37500000          1/144
   4:    -0.41666667   -0.25000000   -0.37500000          1/144
   5:    -0.41666667   -0.25000000   -0.12500000          1/144
   6:    -0.41666667   -0.25000000    0.12500000          1/144
   7:    -0.41666667   -0.25000000    0.37500000          1/144
   8:    -0.41666667   -0.08333333   -0.37500000          1/144
   9:    -0.41666667   -0.08333333   -0.12500000          1/144
          ...
 143:     0.41666667    0.41666667    0.37500000          1/144

Wave functions: Plane wave expansion
  Cutoff energy: 600.000 eV
  Number of coefficients (min, max): 10068, 10125
  Pulay-stress correction: 0.000000 eV/Ang^3 (de/decut=0.000000)
  Using FFTW library
  ScaLapack parameters: grid=1x1, blocksize=None
  Wavefunction extrapolation:
    Improved wavefunction reuse through dual PAW basis

  Fermi-Dirac: width=0.0010 eV

Eigensolver
   Davidson(niter=2)

Densities:
  Coarse grid: 60*35*27 grid
  Fine grid: 120*70*54 grid
  Total Charge: 0.000000

Density mixing:
  Method: difference
  Backend: pulay
  Linear mixing parameter: 0.05
  Mixing with 5 old densities
  Damping of long wave oscillations: 50

Hamiltonian:
  XC and Coulomb potentials evaluated on a 120*70*54 grid
  Using the LDA Exchange-Correlation functional

Total number of cores used: 64
Parallelization over k-points: 16
Domain decomposition: 2 x 2 x 1

Number of atoms: 28
Number of atomic orbitals: 148
Number of bands in calculation: 112
Number of valence electrons: 180
Bands to converge: occupied

... initialized

Initializing position-dependent things.

Density initialized from atomic densities
Creating initial wave functions:
  112 bands from LCAO basis set

    /|         OP              |
   / |O            O        O  |
  /  |       O            O  P |
 *   |O    Mn      O           |
 |   |          OLi          O |
 |   .P-O--------------Mn------.
 |  /          Li    O  Mn  O /
 | /Li O           PO        /
 |/       Mn                /
 *Li-----------------------*

Positions:
   0 O     -1.360678   -2.541161   -1.202221    ( 0.0000,  0.0000,  0.0000)
   1 O     -3.121941    2.976855    1.167242    ( 0.0000,  0.0000,  0.0000)
   2 O      2.107533    0.508090    1.540712    ( 0.0000,  0.0000,  0.0000)
   3 O      3.869373   -0.072395   -0.828750    ( 0.0000,  0.0000,  0.0000)
   4 O      2.107821    2.976875    1.540792    ( 0.0000,  0.0000,  0.0000)
   5 O      3.869084   -2.541141   -0.828671    ( 0.0000,  0.0000,  0.0000)
   6 O     -1.360390   -0.072375   -1.202141    ( 0.0000,  0.0000,  0.0000)
   7 O     -3.122230    0.508109    1.167321    ( 0.0000,  0.0000,  0.0000)
   8 O     -4.413461   -1.306992   -0.794251    ( 0.0000,  0.0000,  0.0000)
   9 O     -0.069585    1.742707    1.575662    ( 0.0000,  0.0000,  0.0000)
  10 O      5.160604    1.742707    1.132822    ( 0.0000,  0.0000,  0.0000)
  11 O      0.816728   -1.306992   -1.237091    ( 0.0000,  0.0000,  0.0000)
  12 Mn    -2.570809   -1.307302    0.247161    ( 0.0000,  0.0000,  1.0000)
  13 Mn    -1.912021    1.743016   -2.122906    ( 0.0000,  0.0000, -1.0000)
  14 Mn     3.317952    1.743017    0.091411    ( 0.0000,  0.0000, -1.0000)
  15 Mn     2.659164   -1.307302    2.461478    ( 0.0000,  0.0000,  1.0000)
  16 P     -0.620664   -1.306816   -1.828465    ( 0.0000,  0.0000,  0.0000)
  17 P     -3.862097    1.742530    0.541238    ( 0.0000,  0.0000,  0.0000)
  18 P      1.367807    1.742530    2.167036    ( 0.0000,  0.0000,  0.0000)
  19 P      4.609240   -1.306816   -0.202666    ( 0.0000,  0.0000,  0.0000)
  20 O     -0.646437   -1.306845    1.374751    ( 0.0000,  0.0000,  0.0000)
  21 O     -3.836504    1.742559   -0.995565    ( 0.0000,  0.0000,  0.0000)
  22 O      1.393580    1.742559   -1.036179    ( 0.0000,  0.0000,  0.0000)
  23 O      4.583647   -1.306845    1.334136    ( 0.0000,  0.0000,  0.0000)
  24 Li    -4.856429   -2.832143   -2.200714    ( 0.0000,  0.0000,  0.0000)
  25 Li     0.373571   -2.832143    0.169286    ( 0.0000,  0.0000,  0.0000)
  26 Li    -4.856429    0.217857   -2.200714    ( 0.0000,  0.0000,  0.0000)
  27 Li     0.373571    0.207857    0.169286    ( 0.0000,  0.0000,  0.0000)

Unit cell:
           periodic     x           y           z      points  spacing
  1. axis:    yes   10.460000    0.000000    0.000000    60     0.1743
  2. axis:    yes    0.000000    6.100000    0.000000    35     0.1743
  3. axis:    yes    0.000000    0.000000    4.740000    27     0.1756

  Lengths:  10.460000   6.100000   4.740000
  Angles:   90.000000  90.000000  90.000000

Effective grid spacing dv^(1/3) = 0.1747

                     log10-error:           total        iterations:
           time      wfs    density  force  energy       poisson  magmom
iter:   1  13:07:00                       -231.920361             +0.0000
iter:   2  13:07:21  -0.55  -0.94         -231.731036             -0.0155
iter:   3  13:07:42  -0.72  -0.98         -220.588660             -0.0194
iter:   4  13:08:03  -0.94  -1.20         -218.873452             -0.0094
iter:   5  13:08:23  -1.93  -1.36         -222.356797             -0.0056
iter:   6  13:08:44  -1.98  -1.42         -220.995250             -0.0027
iter:   7  13:09:05  -2.21  -1.66         -223.715839             -0.0017
iter:   8  13:09:26  -1.79  -1.89         -226.591786             -0.0002
iter:   9  13:09:46  -1.92  -1.93         -226.553693             -0.0000
iter:  10  13:10:07  -2.29  -2.02         -226.552851             +0.0000
iter:  11  13:10:28  -2.50  -2.08         -226.424367             +0.0000
iter:  12  13:10:48  -3.20  -2.22         -226.315375             +0.0000
iter:  13  13:11:09  -2.40  -2.39         -226.289410             +0.0000
iter:  14  13:11:30  -3.19  -2.60         -226.236362             +0.0000
iter:  15  13:11:51  -3.76  -3.00         -226.228962             -0.0000
iter:  16  13:12:11  -3.80  -3.06         -226.236810             +0.0000
iter:  17  13:12:32  -4.01  -3.05         -226.229691             +0.0000
iter:  18  13:12:53  -4.21  -3.24         -226.228377             +0.0000
iter:  19  13:13:13  -4.45  -3.25         -226.228750             +0.0000
iter:  20  13:13:34  -3.96  -3.20         -226.229455             +0.0000
iter:  21  13:13:55  -4.53  -3.31         -226.227974             +0.0000
iter:  22  13:14:16  -4.83  -3.83         -226.228390             +0.0000
iter:  23  13:14:36  -5.39  -3.68         -226.227979             +0.0000
iter:  24  13:14:57  -6.14  -4.00         -226.227932             +0.0000
iter:  25  13:15:18  -6.24  -4.03         -226.227923             +0.0000
iter:  26  13:15:38  -6.58  -4.13         -226.227907             +0.0000
iter:  27  13:15:59  -6.07  -4.16         -226.227938             +0.0000
iter:  28  13:16:20  -6.07  -4.12         -226.227901             +0.0000
iter:  29  13:16:41  -6.89  -4.66         -226.227900             +0.0000
iter:  30  13:17:01  -7.12  -4.78         -226.227897             +0.0000
iter:  31  13:17:27  -7.52  -4.83         -226.227898             +0.0000
iter:  32  13:17:53  -7.79  -5.04    -3.28-226.227898             -0.0000
iter:  33  13:18:19  -7.41  -4.99    -2.67-226.227897             -0.0000
iter:  34  13:18:45  -8.74  -5.40    -3.54-226.227897             -0.0000
iter:  35  13:19:11  -8.28  -5.49    -3.16-226.227897             -0.0000
iter:  36  13:19:37  -8.87  -5.45    -3.22-226.227897             -0.0000
iter:  37  13:20:03  -9.97  -5.85    -4.04-226.227897             -0.0000
iter:  38  13:20:29  -9.38  -5.91    -3.80-226.227897             -0.0000
iter:  39  13:20:55 -10.15  -6.16    -4.04-226.227897             -0.0000
iter:  40  13:21:21 -10.85  -6.20    -4.57-226.227897             -0.0000
iter:  41  13:21:47 -10.29  -6.27    -4.28-226.227897             -0.0000
iter:  42  13:22:12 -11.02  -6.41    -4.39-226.227897             -0.0000
iter:  43  13:22:38 -11.20  -6.78    -4.74-226.227897             -0.0000
iter:  44  13:23:04 -12.61  -6.76    -5.27-226.227897             -0.0000
iter:  45  13:23:30 -11.16  -6.79    -4.67-226.227897             +0.0000
iter:  46  13:23:56 -11.63  -6.93    -4.82-226.227897             +0.0000
iter:  47  13:24:22 -11.64  -7.19    -4.83-226.227897             +0.0000
iter:  48  13:24:48 -12.22  -7.23    -5.25-226.227897             +0.0000
iter:  49  13:25:14 -13.13  -7.68    -5.83-226.227897             +0.0000
iter:  50  13:25:40 -13.68  -7.80    -5.88-226.227897             +0.0000
iter:  51  13:26:06 -13.45  -7.85    -5.79-226.227897             +0.0000
iter:  52  13:26:32 -14.67  -8.00    -6.41-226.227897             +0.0000

Converged after 52 iterations.

Dipole moment: (10.671039, 1.463911, -6.269968) |e|*Ang

Total magnetic moment: (0.000000, 0.000000, 0.000000)
Local magnetic moments:
   0 O  ( 0.000000,  0.000000, -0.000491)
   1 O  ( 0.000000,  0.000000,  0.000551)
   2 O  ( 0.000000,  0.000000,  0.000589)
   3 O  ( 0.000000,  0.000000, -0.000534)
   4 O  ( 0.000000,  0.000000,  0.000545)
   5 O  ( 0.000000,  0.000000, -0.000516)
   6 O  ( 0.000000,  0.000000, -0.000487)
   7 O  ( 0.000000,  0.000000,  0.000573)
   8 O  ( 0.000000,  0.000000,  0.028715)
   9 O  ( 0.000000,  0.000000, -0.028757)
  10 O  ( 0.000000,  0.000000, -0.028671)
  11 O  ( 0.000000,  0.000000,  0.028646)
  12 Mn ( 0.000000,  0.000000,  4.448149)
  13 Mn ( 0.000000,  0.000000, -4.448313)
  14 Mn ( 0.000000,  0.000000, -4.448174)
  15 Mn ( 0.000000,  0.000000,  4.448168)
  16 P  ( 0.000000,  0.000000,  0.001557)
  17 P  ( 0.000000,  0.000000, -0.001547)
  18 P  ( 0.000000,  0.000000, -0.001558)
  19 P  ( 0.000000,  0.000000,  0.001540)
  20 O  ( 0.000000,  0.000000,  0.025291)
  21 O  ( 0.000000,  0.000000, -0.025294)
  22 O  ( 0.000000,  0.000000, -0.025339)
  23 O  ( 0.000000,  0.000000,  0.025318)
  24 Li ( 0.000000,  0.000000, -0.000000)
  25 Li ( 0.000000,  0.000000, -0.000001)
  26 Li ( 0.000000,  0.000000, -0.000000)
  27 Li ( 0.000000,  0.000000,  0.000008)

Energy contributions relative to reference atoms: (reference = -196157.275402)

Kinetic:       +217.352441
Potential:     -195.237357
External:        +0.000000
XC:            -250.384130
Entropy (-ST):   -0.000000
Local:           +2.041150
Free energy:   -226.227897
Extrapolated:  -226.227897

Spin contamination: 9.560411 electrons
Showing only first 2 kpts
                      Up                     Down
 Kpt  Band  Eigenvalues  Occupancy  Eigenvalues  Occupancy
  0    88      5.10840    1.00000      5.11135    1.00000
  0    89      5.13278    1.00000      5.13599    1.00000
  0    90      7.29017    0.00000      7.28708    0.00000
  0    91      7.30777    0.00000      7.30497    0.00000

  1    88      5.13407    1.00000      5.13714    1.00000
  1    89      5.16321    1.00000      5.16646    1.00000
  1    90      7.23293    0.00000      7.22991    0.00000
  1    91      7.24506    0.00000      7.24229    0.00000

Fermi level: 6.54251

Gap: 1.969 eV
Transition (v -> c):
  (s=1, k=74, n=89, [0.08, -0.42, 0.12]) -> (s=1, k=61, n=90, [-0.08, 0.08, -0.12])
Writing to born-0.01-27y-.gpw (mode='all')