User:   madkru@c176.nifl.fysik.dtu.dk
Date:   Thu May  6 12:55:02 2021
Arch:   x86_64
Pid:    155892
Python: 3.8.6
gpaw:   /home/niflheim2/cmr/WIP/stacking/venv/gpaw/gpaw (393e8a163a)
_gpaw:  /home/niflheim2/cmr/WIP/stacking/venv/gpaw/build/lib.linux-x86_64-skylake-3.8/
        _gpaw.cpython-38-x86_64-linux-gnu.so (393e8a163a)
ase:    /home/niflheim2/cmr/WIP/stacking/venv/ase/ase (version 3.22.0b1-5e85d35a81)
numpy:  /home/modules/software/SciPy-bundle/2020.11-intel-2020b/lib/python3.8/site-packages/numpy (version 1.19.4)
scipy:  /home/modules/software/SciPy-bundle/2020.11-intel-2020b/lib/python3.8/site-packages/scipy (version 1.5.4)
units:  Angstrom and eV
cores: 40
OpenMP: False
OMP_NUM_THREADS: 1

Input parameters:
  convergence: {density: 1e-09}
  experimental: {magmoms: [[0. 0. 0.]
 [0. 0. 0.]
 [0. 0. 0.]
 ...
 [0. 0. 0.]
 [0. 0. 0.]
 [0. 0. 0.]],
                 soc: True}
  kpts: [4 4 6]
  maxiter: 5000
  mixer: {backend: pulay,
          beta: 0.05,
          method: difference,
          nmaxold: 3,
          weight: 100}
  mode: {ecut: 600.0,
         gammacentered: False,
         name: pw}
  occupations: {fixmagmom: False,
                name: fermi-dirac,
                width: 0.001}
  symmetry: off

System changes: positions, numbers, cell, pbc, initial_charges, initial_magmoms

Initialize ...

O-setup:
  name: Oxygen
  id: 9b9d51c344dea68c822856295a461509
  Z: 8.0
  valence: 6
  core: 2
  charge: 0.0
  file: /home/modules/software/GPAW-setups/0.9.20000/O.LDA.gz
  compensation charges: gauss, rc=0.21, lmax=2
  cutoffs: 1.17(filt), 0.83(core),
  valence states:
                energy  radius
    2s(2.00)   -23.752   0.688
    2p(4.00)    -9.195   0.598
    *s           3.459   0.688
    *p          18.016   0.598
    *d           0.000   0.619

  Using partial waves for O as LCAO basis

Mn-setup:
  name: Manganese
  id: 0d715a8018be061a6e9ea6f2d364ac92
  Z: 25.0
  valence: 15
  core: 10
  charge: 0.0
  file: /home/modules/software/GPAW-setups/0.9.20000/Mn.LDA.gz
  compensation charges: gauss, rc=0.38, lmax=2
  cutoffs: 2.14(filt), 0.86(core),
  valence states:
                energy  radius
    3s(2.00)   -85.387   1.275
    4s(2.00)    -5.282   1.275
    3p(6.00)   -54.493   1.281
    4p(0.00)    -1.471   1.281
    3d(5.00)    -7.009   1.138
    *d          20.203   1.138

[...]

P-setup:
  name: Phosphorus
  id: a5561c299094968922a179ab894d2e2d
  Z: 15.0
  valence: 5
  core: 10
  charge: 0.0
  file: /home/modules/software/GPAW-setups/0.9.20000/P.LDA.gz
  compensation charges: gauss, rc=0.30, lmax=2
  cutoffs: 1.69(filt), 1.81(core),
  valence states:
                energy  radius
    3s(2.00)   -14.015   0.953
    3p(3.00)    -5.596   0.953
    *s          13.197   0.953
    *p          21.615   0.953
    *d           0.000   0.953

[...]

Li-setup:
  name: Lithium
  id: b73562207f97a71b6967473b66fe8b65
  Z: 3.0
  valence: 1
  core: 2
  charge: 0.0
  file: /home/modules/software/GPAW-setups/0.9.20000/Li.LDA.gz
  compensation charges: gauss, rc=0.33, lmax=2
  cutoffs: 1.91(filt), 2.55(core),
  valence states:
                energy  radius
    2s(1.00)    -2.874   1.058
    2p(0.00)    -1.126   1.058
    *s          24.338   1.058

  Using partial waves for Li as LCAO basis

Reference energy: -196157.275402

Non-collinear calculation.
Magnetic moment: (0.000000, 0.000000, 0.000000)

Convergence criteria:
  Maximum total energy change: 0.0005 eV / electron
  Maximum integral of absolute density change: 1e-09 electrons
  Maximum integral of absolute eigenstate change: 4e-08 eV^2
  Maximum number of iterations: 5000

Symmetries present (total): 1

  ( 1  0  0)
  ( 0  1  0)
  ( 0  0  1)

96 k-points: 4 x 4 x 6 Monkhorst-Pack grid
96 k-points in the irreducible part of the Brillouin zone
       k-points in crystal coordinates                weights
   0:    -0.37500000   -0.37500000   -0.41666667          1/96
   1:    -0.37500000   -0.37500000   -0.25000000          1/96
   2:    -0.37500000   -0.37500000   -0.08333333          1/96
   3:    -0.37500000   -0.37500000    0.08333333          1/96
   4:    -0.37500000   -0.37500000    0.25000000          1/96
   5:    -0.37500000   -0.37500000    0.41666667          1/96
   6:    -0.37500000   -0.12500000   -0.41666667          1/96
   7:    -0.37500000   -0.12500000   -0.25000000          1/96
   8:    -0.37500000   -0.12500000   -0.08333333          1/96
   9:    -0.37500000   -0.12500000    0.08333333          1/96
          ...
  95:     0.37500000    0.37500000    0.41666667          1/96

Wave functions: Plane wave expansion
  Cutoff energy: 600.000 eV
  Number of coefficients (min, max): 10065, 10119
  Pulay-stress correction: 0.000000 eV/Ang^3 (de/decut=0.000000)
  Using FFTW library
  ScaLapack parameters: grid=1x1, blocksize=None
  Wavefunction extrapolation:
    Improved wavefunction reuse through dual PAW basis

  Fermi-Dirac: width=0.0010 eV

Eigensolver
   Davidson(niter=2)

Densities:
  Coarse grid: 60*35*27 grid
  Fine grid: 120*70*54 grid
  Total Charge: 0.000000

Density mixing:
  Method: difference
  Backend: pulay
  Linear mixing parameter: 0.05
  Mixing with 3 old densities
  Damping of long wave oscillations: 100

Hamiltonian:
  XC and Coulomb potentials evaluated on a 120*70*54 grid
  Using the LDA Exchange-Correlation functional

Total number of cores used: 40
Parallelization over k-points: 40

Number of atoms: 28
Number of atomic orbitals: 148
Number of bands in calculation: 224
Number of valence electrons: 180
Bands to converge: occupied

... initialized

Initializing position-dependent things.

Density initialized from atomic densities
Creating initial wave functions:
  148 bands from LCAO basis set
  76 bands from random numbers

    /|          P  O           |
   / |O      O                 |
  / O|            O       O  P |
 *   |   O           MO        |
 |   |       Li O            O |
 |  Mn---------------OP-----Li-.
 |  /   On Li             O   /
 | /   O P   O      O     Li /
 |/               Mn        /

Positions:
   0 O   416155308248.509277    0.297175    1.113114    ( 0.0000,  0.0000,  0.0000)
   1 O   416155308246.775452    5.731074    3.475443    ( 0.0000,  0.0000,  0.0000)
   2 O   416155308252.064209    3.431114    3.893496    ( 0.0000,  0.0000,  0.0000)
   3 O   416155308253.781738    2.711330    1.497722    ( 0.0000,  0.0000,  0.0000)
   4 O   416155308251.920044    5.897271    3.870513    ( 0.0000,  0.0000, -3.0000)
   5 O   416155308253.662476    0.242266    1.517284    ( 0.0000,  0.0000,  3.0000)
   6 O   416155308248.448853    2.769608    1.112238    ( 0.0000,  0.0000,  3.0000)
   7 O   416155308246.748962    3.273427    3.472724    ( 0.0000,  0.0000, -3.0000)
   8 O   416155308245.443909    1.401107    1.523103    ( 0.0000,  0.0000,  0.0000)
   9 O   416155308249.808838    4.550625    3.895805    ( 0.0000,  0.0000,  0.0000)
  10 O   416155308255.038574    4.529414    3.451566    ( 0.0000,  0.0000,  0.0000)
  11 O   416155308250.654663    1.591233    1.089491    ( 0.0000,  0.0000,  0.0000)
  12 Mn  416155308247.295410    1.463613    2.514463    ( 0.0000,  0.0000,  0.0000)
  13 Mn  416155308247.951904    4.579206    0.132013    ( 5.0000,  0.0000,  0.0000)
  14 Mn  416155308253.181824    4.520768    2.377073    (-5.0000,  0.0000,  0.0000)
  15 Mn  416155308252.505981    1.567683    4.758019    (-5.0000,  0.0000,  0.0000)
  16 P   416155308249.220825    1.550817    0.476947    ( 5.0000,  0.0000,  0.0000)
  17 P   416155308246.010864    4.507207    2.836712    ( 0.0000,  0.0000,  0.0000)
  18 P   416155308251.242065    4.631071    4.485203    ( 0.0000,  0.0000,  0.0000)
  19 P   416155308254.470581    1.446517    2.112923    ( 0.0000,  0.0000,  0.0000)
  20 O   416155308249.200684    1.536036    3.691355    ( 0.0000,  0.0000,  0.0000)
  21 O   416155308246.021851    4.514596    1.310754    ( 0.0000,  0.0000,  0.0000)
  22 O   416155308251.256470    4.614440    1.292734    ( 0.0000,  0.0000,  0.0000)
  23 O   416155308254.465210    1.468453    3.660616    ( 0.0000,  0.0000,  0.0000)
  24 Li  416155308244.991516   -0.045835    0.025531    ( 0.0000,  0.0000,  0.0000)
  25 Li  416155308250.301819    0.028608    2.412386    ( 0.0000,  0.0000,  0.0000)
  26 Li  416155308245.021973    2.965227    0.045710    ( 0.0000,  0.0000,  0.0000)
  27 Li  416155308250.170959    3.117977    2.406061    ( 0.0000,  0.0000,  0.0000)

Unit cell:
           periodic     x           y           z      points  spacing
  1. axis:    yes   10.460000    0.000000    0.000000    60     0.1743
  2. axis:    yes    0.000000    6.100000    0.000000    35     0.1743
  3. axis:    yes    0.000000    0.000000    4.740000    27     0.1756

  Lengths:  10.460000   6.100000   4.740000
  Angles:   90.000000  90.000000  90.000000

Effective grid spacing dv^(1/3) = 0.1747

                     log10-error:    total        iterations:
           time      wfs    density  energy       poisson
iter:   1  12:57:41                -259.796401            -1.0,+0.0,+0.0
iter:   2  12:58:17  -0.40  -0.89  -266.628021            +1.0,-0.0,+0.2
iter:   3  12:58:53  -0.87  -0.94  -255.277900            +0.0,-0.0,-0.0
iter:   4  12:59:29  -0.63  -0.97  -236.053479            -0.0,+0.0,-0.0
iter:   5  13:00:05  -0.40  -1.08  -233.485494            -0.0,+0.0,-0.0
iter:   6  13:00:41  -1.57  -1.25  -222.098913            -0.0,+0.0,-0.0
iter:   7  13:01:17  -2.30  -1.35  -222.348351            -0.0,+0.0,-0.0
iter:   8  13:01:53  -3.32  -1.34  -221.958214            +0.0,-0.0,-0.0
iter:   9  13:02:29  -2.01  -1.37  -222.145142            -0.5,-0.0,-0.1
iter:  10  13:03:05  -2.16  -1.43  -221.886629            -0.5,-0.0,-0.1
iter:  11  13:03:41  -2.84  -1.57  -223.044703            -1.2,-0.0,-0.1
iter:  12  13:04:17  -2.49  -1.58  -223.286288            -1.1,-0.1,-0.2
iter:  13  13:04:53  -2.64  -1.64  -223.474240            -1.4,-0.1,-0.2
iter:  14  13:05:29  -2.60  -1.72  -224.979702            -1.0,-0.1,-0.3
iter:  15  13:06:04  -2.82  -1.71  -226.205042            -1.0,-0.2,-0.4
iter:  16  13:06:40  -2.08  -1.72  -226.549794            -0.3,-0.2,-0.5
iter:  17  13:07:16  -2.12  -1.87  -226.403045            -0.1,-0.2,-0.4
iter:  18  13:07:52  -3.24  -2.10  -226.316858            +0.0,-0.2,-0.4
iter:  19  13:08:28  -2.99  -2.22  -226.229991            +0.0,-0.2,-0.4
iter:  20  13:09:04  -3.74  -2.49  -226.219903            +0.0,-0.2,-0.4
iter:  21  13:09:40  -4.30  -2.49  -226.214816            -0.0,-0.2,-0.4
iter:  22  13:10:16  -3.68  -2.50  -226.196073            +0.0,-0.2,-0.4
iter:  23  13:10:52  -4.34  -2.63  -226.194416            +0.0,-0.2,-0.4
iter:  24  13:11:28  -4.48  -2.65  -226.194064            +0.0,-0.2,-0.4
iter:  25  13:12:04  -4.52  -2.69  -226.193977            +0.0,-0.2,-0.4
iter:  26  13:12:40  -4.76  -2.79  -226.194371            +0.0,-0.2,-0.4
iter:  27  13:13:16  -4.16  -2.86  -226.191684            +0.0,-0.2,-0.4
iter:  28  13:13:52  -5.50  -3.40  -226.191350            +0.0,-0.2,-0.4
iter:  29  13:14:27  -5.19  -3.45  -226.191014            +0.0,-0.2,-0.4
iter:  30  13:15:03  -5.36  -3.56  -226.191005            +0.0,-0.2,-0.4
iter:  31  13:15:39  -5.60  -3.59  -226.190810            +0.0,-0.2,-0.4
iter:  32  13:16:15  -6.27  -3.66  -226.190783            +0.0,-0.2,-0.4
iter:  33  13:16:51  -6.08  -3.69  -226.190725            +0.0,-0.2,-0.4
iter:  34  13:17:27  -6.54  -3.97  -226.190704            +0.0,-0.2,-0.4
iter:  35  13:18:03  -6.01  -4.02  -226.190732            +0.0,-0.2,-0.4
iter:  36  13:18:38  -6.03  -4.06  -226.190749            +0.0,-0.2,-0.3
iter:  37  13:19:14  -5.33  -4.19  -226.190798            +0.0,-0.2,-0.2
iter:  38  13:19:50  -5.58  -4.25  -226.190803            +0.0,-0.2,-0.1
iter:  39  13:20:26  -6.37  -4.30  -226.190818            +0.0,-0.2,-0.1
iter:  40  13:21:02  -7.33  -4.39  -226.190821            -0.0,-0.2,-0.1
iter:  41  13:21:38  -7.32  -4.46  -226.190822            -0.0,-0.1,-0.1
iter:  42  13:22:14  -7.41  -4.54  -226.190822            -0.0,-0.2,-0.1
iter:  43  13:22:49  -6.58  -4.59  -226.190826            -0.0,-0.1,-0.1
iter:  44  13:23:25  -7.62  -4.72  -226.190826            -0.0,-0.1,-0.1
iter:  45  13:24:01  -7.79  -4.75  -226.190826            -0.0,-0.1,-0.1
iter:  46  13:24:37  -8.82  -4.95  -226.190826            -0.0,-0.1,-0.1
iter:  47  13:25:13  -8.98  -5.04  -226.190826            -0.0,-0.1,-0.1
iter:  48  13:25:48  -8.96  -5.11  -226.190826            -0.0,-0.1,-0.1
iter:  49  13:26:24  -8.19  -5.18  -226.190826            -0.0,-0.1,-0.1
iter:  50  13:27:00  -6.64  -5.24  -226.190829            -0.0,-0.1,-0.1
iter:  51  13:27:36  -6.66  -5.32  -226.190830            -0.0,-0.0,-0.1
iter:  52  13:28:12  -7.11  -5.36  -226.190831            -0.0,-0.0,-0.1
iter:  53  13:28:47  -7.33  -5.55  -226.190832            -0.0,-0.0,-0.1
iter:  54  13:29:23  -7.59  -5.67  -226.190832            -0.0,-0.0,-0.1
iter:  55  13:29:59  -7.07  -5.75  -226.190832            -0.0,-0.0,-0.0
iter:  56  13:30:34  -6.85  -5.80  -226.190832            -0.0,-0.0,-0.0
iter:  57  13:31:10  -7.86  -5.88  -226.190832            -0.0,-0.0,-0.0
iter:  58  13:31:46  -8.64  -5.94  -226.190832            -0.0,-0.0,-0.0
iter:  59  13:32:22  -9.39  -6.00  -226.190832            -0.0,-0.0,-0.0
iter:  60  13:32:57  -8.95  -6.05  -226.190832            -0.0,-0.0,-0.0
[...]
iter: 265  15:34:58  -9.40  -8.57  -226.190836            +0.0,+0.0,+0.0
iter: 266  15:35:33  -9.22  -8.57  -226.190836            +0.0,+0.0,+0.0
iter: 267  15:36:09 -10.66  -8.63  -226.190836            +0.0,+0.0,+0.0
iter: 268  15:36:44 -11.44  -8.70  -226.190836            +0.0,+0.0,+0.0
iter: 269  15:37:20 -11.35  -8.80  -226.190836            +0.0,+0.0,+0.0
iter: 270  15:37:56 -11.31  -8.71  -226.190836            +0.0,+0.0,+0.0
iter: 271  15:38:31 -10.25  -8.78  -226.190836            +0.0,+0.0,+0.0
iter: 272  15:39:07 -10.34  -8.89  -226.190836            +0.0,+0.0,+0.0
iter: 273  15:39:43  -9.72  -8.91  -226.190836            +0.0,+0.0,+0.0
iter: 274  15:40:18 -10.02  -8.71  -226.190836            +0.0,+0.0,+0.0
iter: 275  15:40:54 -10.95  -8.60  -226.190836            +0.0,+0.0,+0.0
iter: 276  15:41:30 -10.99  -8.70  -226.190836            +0.0,+0.0,+0.0
iter: 277  15:42:05 -11.32  -8.79  -226.190836            +0.0,+0.0,+0.0
iter: 278  15:42:41 -11.57  -8.84  -226.190836            +0.0,+0.0,+0.0
iter: 279  15:43:16  -9.31  -9.01  -226.190836            +0.0,+0.0,+0.0

Converged after 279 iterations.

Dipole moment: (12.299341, -1.263992, -2.211469) |e|*Ang

Total magnetic moment: (0.000348, 0.006163, 0.004559)
Local magnetic moments:
   0 O  (-0.003464, -0.000096,  0.000228)
   1 O  ( 0.004371,  0.000065,  0.000232)
   2 O  ( 0.001727, -0.000064, -0.000157)
   3 O  ( 0.002808,  0.000161, -0.000187)
   4 O  (-0.006730,  0.000132, -0.000158)
   5 O  ( 0.002621, -0.000045, -0.000180)
   6 O  (-0.002409,  0.000047,  0.000234)
   7 O  ( 0.000890, -0.000058,  0.000223)
   8 O  (-0.028736,  0.000094,  0.000042)
   9 O  ( 0.028805, -0.000113,  0.000227)
  10 O  ( 0.028745, -0.000060, -0.000139)
  11 O  (-0.029124,  0.000128, -0.000063)
  12 Mn (-4.437877,  0.013354,  0.000002)
  13 Mn ( 4.438068, -0.015282,  0.031198)
  14 Mn ( 4.441968, -0.013285, -0.020026)
  15 Mn (-4.445304,  0.020792, -0.007152)
  16 P  (-0.002360,  0.000008,  0.000159)
  17 P  ( 0.002268, -0.000007,  0.000124)
  18 P  ( 0.001441,  0.000012, -0.000117)
  19 P  (-0.000273,  0.000023, -0.000168)
  20 O  (-0.025177,  0.000076, -0.000181)
  21 O  ( 0.024905, -0.000078, -0.000006)
  22 O  ( 0.026231, -0.000090,  0.000026)
  23 O  (-0.025334,  0.000124,  0.000097)
  24 Li (-0.000070, -0.000001,  0.000000)
  25 Li (-0.000161,  0.000004,  0.000001)
  26 Li ( 0.000204,  0.000002, -0.000001)
  27 Li (-0.000007, -0.000002,  0.000002)

Energy contributions relative to reference atoms: (reference = -196157.275402)

Kinetic:       +217.625317
Potential:     -195.481305
External:        +0.000000
XC:            -250.374264
Entropy (-ST):   -0.000000
Local:           +2.039416
Free energy:   -226.190836
Extrapolated:  -226.190836

Showing only first 2 kpts
 Kpt  Band  Eigenvalues  Occupancy
  0    88     -2.02612    1.00000
  0    89     -2.02330    1.00000
  0    90     -1.94276    1.00000
  0    91     -1.93324    1.00000

  1    88     -2.17094    1.00000
  1    89     -2.15867    1.00000
  1    90     -2.11617    1.00000
  1    91     -2.08142    1.00000

Fermi level: 6.32499

Gap: 1.894 eV
Transition (v -> c):
  (s=0, k=69, n=179, [0.12, 0.38, 0.08]) -> (s=0, k=56, n=180, [0.12, -0.12, -0.08])

Forces in eV/Ang:
  0 O     0.08984    0.00126   -0.16173
  1 O    -0.11502    0.10715   -0.17315
  2 O    -0.07284   -0.07531   -0.07123
  3 O    -0.24505    0.04588   -0.14755
  4 O    -0.07130   -0.13725   -0.05670
  5 O     0.19830    0.22717   -0.06561
  6 O     0.23355   -0.13556   -0.18631
  7 O    -0.16661   -0.00393   -0.13892
  8 O    -0.02356   -0.02668   -0.11242
  9 O     0.08847   -0.01323   -0.08962
 10 O     0.03369    0.00254   -0.15497
 11 O     0.01467   -0.00479   -0.16204
 12 Mn   -0.10033    0.02614    0.24027
 13 Mn   -0.00616   -0.03551    0.26975
 14 Mn    0.15414   -0.02515    0.12777
 15 Mn    0.10058    0.03246    0.18204
 16 P    -0.03149    0.02816    0.37306
 17 P    -0.01171   -0.00793    0.34542
 18 P     0.03131   -0.05091    0.25308
 19 P    -0.01399   -0.00462    0.28753
 20 O     0.02484    0.00449   -0.27118
 21 O     0.05643    0.00623   -0.25300
 22 O    -0.08013   -0.00035   -0.26643
 23 O    -0.05144   -0.00565   -0.26899
 24 Li    0.01095    0.00765    0.14075
 25 Li   -0.01753    0.01903    0.12302
 26 Li   -0.00499    0.01820    0.12570
 27 Li   -0.02676    0.00440    0.11095