User:   madkru@i013.nifl.fysik.dtu.dk
Date:   Mon Mar 22 19:30:07 2021
Arch:   x86_64
Pid:    27943
Python: 3.7.4
gpaw:   /home/niflheim/madkru/venv_folder/gpaw/gpaw (d0d1ca1c71)
_gpaw:  /home/niflheim/madkru/venv_folder/gpaw/build/lib.linux-x86_64-ivybridge-3.7/
        _gpaw.cpython-37m-x86_64-linux-gnu.so (4fd39e8b1e)
ase:    /home/niflheim/madkru/venv_folder/ase/ase (version 3.21.0b1-7e6c206a91)
numpy:  /home/niflheim/madkru/venv_folder/lib/python3.7/site-packages/numpy (version 1.19.4)
scipy:  /home/niflheim/madkru/venv_folder/lib/python3.7/site-packages/scipy (version 1.5.4)
units:  Angstrom and eV
cores: 32
OMP_NUM_THREADS: 1

Input parameters:
  convergence: {bands: occupied,
                density: 0.0001,
                eigenstates: 4e-08,
                energy: 0.0005,
                forces: 1e-06}
  kpts: [6 6 4]
  mode: {ecut: 600.0,
         gammacentered: False,
         name: pw}
  occupations: {fixmagmom: False,
                name: fermi-dirac,
                width: 0.001}
  symmetry: {point_group: False,
             time_reversal: False}

System changes: positions, numbers, cell, pbc, initial_charges, initial_magmoms

Initialize ...

O-setup:
  name: Oxygen
  id: 9b9d51c344dea68c822856295a461509
  Z: 8.0
  valence: 6
  core: 2
  charge: 0.0
  file: /home/modules/software/GPAW-setups/0.9.20000/O.LDA.gz
  compensation charges: gauss, rc=0.21, lmax=2
  cutoffs: 1.17(filt), 0.83(core),
  valence states:
                energy  radius
    2s(2.00)   -23.752   0.688
    2p(4.00)    -9.195   0.598
    *s           3.459   0.688
    *p          18.016   0.598
    *d           0.000   0.619

  Using partial waves for O as LCAO basis

Mn-setup:
  name: Manganese
  id: 0d715a8018be061a6e9ea6f2d364ac92
  Z: 25.0
  valence: 15
  core: 10
  charge: 0.0
  file: /home/modules/software/GPAW-setups/0.9.20000/Mn.LDA.gz
  compensation charges: gauss, rc=0.38, lmax=2
  cutoffs: 2.14(filt), 0.86(core),
  valence states:
                energy  radius
    3s(2.00)   -85.387   1.275
    4s(2.00)    -5.282   1.275
    3p(6.00)   -54.493   1.281
    4p(0.00)    -1.471   1.281
    3d(5.00)    -7.009   1.138
    *d          20.203   1.138

[...]

P-setup:
  name: Phosphorus
  id: a5561c299094968922a179ab894d2e2d
  Z: 15.0
  valence: 5
  core: 10
  charge: 0.0
  file: /home/modules/software/GPAW-setups/0.9.20000/P.LDA.gz
  compensation charges: gauss, rc=0.30, lmax=2
  cutoffs: 1.69(filt), 1.81(core),
  valence states:
                energy  radius
    3s(2.00)   -14.015   0.953
    3p(3.00)    -5.596   0.953
    *s          13.197   0.953
    *p          21.615   0.953
    *d           0.000   0.953

[...]

Li-setup:
  name: Lithium
  id: b73562207f97a71b6967473b66fe8b65
  Z: 3.0
  valence: 1
  core: 2
  charge: 0.0
  file: /home/modules/software/GPAW-setups/0.9.20000/Li.LDA.gz
  compensation charges: gauss, rc=0.33, lmax=2
  cutoffs: 1.91(filt), 2.55(core),
  valence states:
                energy  radius
    2s(1.00)    -2.874   1.058
    2p(0.00)    -1.126   1.058
    *s          24.338   1.058

  Using partial waves for Li as LCAO basis

Reference energy: -196157.275402

Spin-polarized calculation.
Magnetic moment: 0.000000

Convergence criteria:
  Maximum total energy change: 0.0005 eV / electron
  Maximum integral of absolute density change: 0.0001 electrons
  Maximum integral of absolute eigenstate change: 4e-08 eV^2
  Maximum change in atomic force: 1e-06 eV / Ang
  Maximum number of iterations: 333

Symmetries present (total): 1

  ( 1  0  0)
  ( 0  1  0)
  ( 0  0  1)

144 k-points: 6 x 6 x 4 Monkhorst-Pack grid
144 k-points in the irreducible part of the Brillouin zone
       k-points in crystal coordinates                weights
   0:    -0.41666667   -0.41666667   -0.37500000          1/144
   1:    -0.41666667   -0.41666667   -0.12500000          1/144
   2:    -0.41666667   -0.41666667    0.12500000          1/144
   3:    -0.41666667   -0.41666667    0.37500000          1/144
   4:    -0.41666667   -0.25000000   -0.37500000          1/144
   5:    -0.41666667   -0.25000000   -0.12500000          1/144
   6:    -0.41666667   -0.25000000    0.12500000          1/144
   7:    -0.41666667   -0.25000000    0.37500000          1/144
   8:    -0.41666667   -0.08333333   -0.37500000          1/144
   9:    -0.41666667   -0.08333333   -0.12500000          1/144
          ...
 143:     0.41666667    0.41666667    0.37500000          1/144

Wave functions: Plane wave expansion
  Cutoff energy: 600.000 eV
  Number of coefficients (min, max): 9132, 9161
  Pulay-stress correction: 0.000000 eV/Ang^3 (de/decut=0.000000)
  Using FFTW library
  ScaLapack parameters: grid=1x1, blocksize=None
  Wavefunction extrapolation:
    Improved wavefunction reuse through dual PAW basis

  Fermi-Dirac: width=0.0010 eV

Eigensolver
   Davidson(niter=2, smin=None, normalize=True)

Densities:
  Coarse grid: 60*35*27 grid
  Fine grid: 120*70*54 grid
  Total Charge: 0.000000

Density mixing:
  Method: difference
  Backend: pulay
  Linear mixing parameter: 0.05
  Mixing with 5 old densities
  Damping of long wave oscillations: 50

Hamiltonian:
  XC and Coulomb potentials evaluated on a 120*70*54 grid
  Using the LDA Exchange-Correlation functional

Total number of cores used: 32
Parallelization over k-points: 16
Domain decomposition: 2 x 1 x 1

Number of atoms: 28
Number of atomic orbitals: 148
Number of bands in calculation: 112
Number of valence electrons: 180
Bands to converge: occupied

... initialized

Initializing position-dependent things.

Density initialized from atomic densities
Creating initial wave functions:
  112 bands from LCAO basis set

               O     O  P  O
            PO           OMn     O
                  O          MO
            O        Li O
             Mn  Mn          OP
         O       O Li O
         Li     O P         O
       Li

Positions:
   0 O     -1.280122   -2.495595   -1.112331    ( 0.0000,  0.0000,  0.0000)
   1 O     -3.023238    2.918858    1.191723    ( 0.0000,  0.0000,  0.0000)
   2 O      1.997451    0.467212    1.441442    ( 0.0000,  0.0000,  0.0000)
   3 O      3.740343   -0.043905   -0.862614    ( 0.0000,  0.0000,  0.0000)
   4 O      1.997419    2.918835    1.441465    ( 0.0000,  0.0000,  0.0000)
   5 O      3.740372   -2.495531   -0.862587    ( 0.0000,  0.0000,  0.0000)
   6 O     -1.280154   -0.043891   -1.112309    ( 0.0000,  0.0000,  0.0000)
   7 O     -3.023210    0.467136    1.191750    ( 0.0000,  0.0000,  0.0000)
   8 O     -4.137405   -1.269737   -0.856207    ( 0.0000,  0.0000,  0.0000)
   9 O     -0.155894    1.692986    1.447725    ( 0.0000,  0.0000,  0.0000)
  10 O      4.864578    1.693016    1.185324    ( 0.0000,  0.0000,  0.0000)
  11 O      0.873163   -1.269706   -1.118625    ( 0.0000,  0.0000,  0.0000)
  12 Mn    -2.437108   -1.269902    0.302197    ( 0.0000,  0.0000,  1.0000)
  13 Mn    -1.866187    1.693156   -2.001927    ( 0.0000,  0.0000, -1.0000)
  14 Mn     3.154299    1.693181    0.026917    ( 0.0000,  0.0000, -1.0000)
  15 Mn     2.583444   -1.269877    2.331074    ( 0.0000,  0.0000,  1.0000)
  16 P     -0.543052   -1.269720   -1.734187    ( 0.0000,  0.0000,  0.0000)
  17 P     -3.760282    1.692974    0.569859    ( 0.0000,  0.0000,  0.0000)
  18 P      1.260300    1.693000    2.063344    ( 0.0000,  0.0000,  0.0000)
  19 P      4.477470   -1.269695   -0.240696    ( 0.0000,  0.0000,  0.0000)
  20 O     -0.544413   -1.269738    1.348523    ( 0.0000,  0.0000,  0.0000)
  21 O     -3.758895    1.692992   -0.955558    ( 0.0000,  0.0000,  0.0000)
  22 O      1.261690    1.693018   -1.019367    ( 0.0000,  0.0000,  0.0000)
  23 O      4.476045   -1.269713    1.284716    ( 0.0000,  0.0000,  0.0000)
  24 Li    -4.662027   -2.751322   -2.139440    ( 0.0000,  0.0000,  0.0000)
  25 Li     0.358703   -2.751277    0.164614    ( 0.0000,  0.0000,  0.0000)
  26 Li    -4.662011    0.211617   -2.139439    ( 0.0000,  0.0000,  0.0000)
  27 Li     0.358720    0.211628    0.164615    ( 0.0000,  0.0000,  0.0000)

Unit cell:
           periodic     x           y           z      points  spacing
  1. axis:    yes   10.041096    0.000054   -0.000022    60     0.1674
  2. axis:    yes    0.000032    5.925857    0.000001    35     0.1693
  3. axis:    yes   -0.000010    0.000001    4.608134    27     0.1707

  Lengths:  10.041096   5.925857   4.608134
  Angles:   89.999974  90.000250  89.999381

Effective grid spacing dv^(1/3) = 0.1691

                     log10-error:           total        iterations:
           time      wfs    density  force  energy       poisson  magmom
iter:   1  19:33:13                       -233.728427             +0.0000
iter:   2  19:33:49  -0.47  -0.95         -231.548752             +0.0038
iter:   3  19:34:25  -0.61  -1.00         -220.820532             +0.0040
iter:   4  19:35:01  -1.22  -1.31         -221.307932             +0.3889
iter:   5  19:35:37  -2.10  -1.38         -222.436250             +0.2213
iter:   6  19:36:13  -2.12  -1.39         -225.639035             +0.0177
iter:   7  19:36:49  -2.15  -1.43         -223.993397             +0.5997
iter:   8  19:37:25  -2.30  -1.56         -225.298300             +0.7924
iter:   9  19:38:01  -2.21  -1.80         -226.519398             +0.3094
iter:  10  19:38:37  -3.08  -2.04         -226.577380             +0.0761
iter:  11  19:39:14  -2.27  -2.04         -226.698870             +0.0051
iter:  12  19:39:50  -2.43  -2.16         -226.301426             +0.0216
iter:  13  19:40:26  -2.94  -2.20         -226.263089             +0.0305
iter:  14  19:41:02  -2.56  -2.26         -226.203842             +0.0118
iter:  15  19:41:38  -3.56  -2.52         -226.202941             +0.0063
iter:  16  19:42:14  -2.86  -2.56         -226.262901             +0.0020
iter:  17  19:42:50  -2.71  -2.64         -226.181339             +0.0016
iter:  18  19:43:26  -3.45  -2.75         -226.177392             +0.0005
iter:  19  19:44:02  -4.19  -2.87         -226.176528             +0.0000
iter:  20  19:44:38  -4.02  -2.92         -226.177504             +0.0002
iter:  21  19:45:15  -4.13  -3.06         -226.174196             -0.0000
iter:  22  19:45:51  -4.80  -3.15         -226.173800             -0.0000
iter:  23  19:46:27  -5.25  -3.21         -226.173742             +0.0000
iter:  24  19:47:03  -4.54  -3.25         -226.174809             +0.0000
iter:  25  19:47:39  -5.10  -3.48         -226.174857             +0.0000
iter:  26  19:48:15  -5.13  -3.64         -226.173716             +0.0000
iter:  27  19:48:51  -5.79  -3.79         -226.173555             +0.0000
iter:  28  19:49:27  -5.76  -3.87         -226.173495             +0.0000
iter:  29  19:50:04  -5.93  -3.96         -226.173405             +0.0000
iter:  30  19:50:40  -6.37  -4.05         -226.173384             +0.0000
iter:  31  19:51:16  -6.96  -4.15         -226.173403             +0.0000
iter:  32  19:51:52  -6.93  -4.19         -226.173403             -0.0000
iter:  33  19:52:28  -7.11  -4.48         -226.173404             -0.0000
iter:  34  19:53:05  -7.10  -4.68         -226.173403             -0.0000
iter:  35  19:53:50  -7.89  -5.01         -226.173402             -0.0000
iter:  36  19:54:35  -8.44  -5.23    -3.32-226.173402             -0.0000
iter:  37  19:55:20  -9.15  -5.35    -3.43-226.173402             +0.0000
iter:  38  19:56:05  -8.47  -5.42    -3.13-226.173401             +0.0000
iter:  39  19:56:51  -9.34  -5.78    -3.94-226.173401             +0.0000
iter:  40  19:57:36  -9.24  -5.81    -3.34-226.173401             +0.0000
iter:  41  19:58:22 -10.04  -5.95    -3.43-226.173401             +0.0000
iter:  42  19:59:07  -9.78  -6.24    -3.81-226.173401             -0.0000
iter:  43  19:59:52 -10.25  -6.27    -3.82-226.173401             +0.0000
iter:  44  20:00:38 -11.75  -6.61    -4.44-226.173401             +0.0000
iter:  45  20:01:23 -10.81  -6.64    -4.29-226.173401             +0.0000
iter:  46  20:02:08 -11.41  -6.78    -4.36-226.173401             -0.0000
iter:  47  20:02:53 -12.38  -7.05    -5.23-226.173401             -0.0000
iter:  48  20:03:39 -11.83  -7.09    -4.62-226.173401             -0.0000
iter:  49  20:04:24 -12.90  -7.26    -5.64-226.173401             -0.0000
iter:  50  20:05:09 -12.08  -7.31    -4.92-226.173401             -0.0000
iter:  51  20:05:55 -13.12  -7.56    -5.25-226.173401             -0.0000
iter:  52  20:06:40 -14.10  -7.64    -5.73-226.173401             +0.0000
iter:  53  20:07:25 -14.39  -7.69    -5.66-226.173401             -0.0000
iter:  54  20:08:11 -13.65  -7.75    -5.41-226.173401             -0.0000
iter:  55  20:08:56 -14.39  -7.78    -6.04-226.173401             -0.0000

Converged after 55 iterations.

Dipole moment: (18.319431, -2.308246, -4.520372) |e|*Ang

Total magnetic moment: (0.000000, 0.000000, -0.000000)
Local magnetic moments:
   0 O  ( 0.000000,  0.000000, -0.001828)
   1 O  ( 0.000000,  0.000000,  0.001821)
   2 O  ( 0.000000,  0.000000,  0.001814)
   3 O  ( 0.000000,  0.000000, -0.001705)
   4 O  ( 0.000000,  0.000000,  0.001808)
   5 O  ( 0.000000,  0.000000, -0.001700)
   6 O  ( 0.000000,  0.000000, -0.001833)
   7 O  ( 0.000000,  0.000000,  0.001826)
   8 O  ( 0.000000,  0.000000,  0.031458)
   9 O  ( 0.000000,  0.000000, -0.031009)
  10 O  ( 0.000000,  0.000000, -0.031178)
  11 O  ( 0.000000,  0.000000,  0.031189)
  12 Mn ( 0.000000,  0.000000,  4.394413)
  13 Mn ( 0.000000,  0.000000, -4.395639)
  14 Mn ( 0.000000,  0.000000, -4.395720)
  15 Mn ( 0.000000,  0.000000,  4.395762)
  16 P  ( 0.000000,  0.000000,  0.000864)
  17 P  ( 0.000000,  0.000000, -0.000825)
  18 P  ( 0.000000,  0.000000, -0.000889)
  19 P  ( 0.000000,  0.000000,  0.001062)
  20 O  ( 0.000000,  0.000000,  0.028217)
  21 O  ( 0.000000,  0.000000, -0.028396)
  22 O  ( 0.000000,  0.000000, -0.028420)
  23 O  ( 0.000000,  0.000000,  0.028370)
  24 Li ( 0.000000,  0.000000,  0.000035)
  25 Li ( 0.000000,  0.000000,  0.000000)
  26 Li ( 0.000000,  0.000000,  0.000035)
  27 Li ( 0.000000,  0.000000,  0.000000)

Energy contributions relative to reference atoms: (reference = -196157.275402)

Kinetic:       +277.018697
Potential:     -240.495865
External:        +0.000000
XC:            -264.585716
Entropy (-ST):   -0.000000
Local:           +1.889482
Free energy:   -226.173401
Extrapolated:  -226.173401

Spin contamination: 9.455057 electrons
Showing only first 2 kpts
                      Up                     Down
 Kpt  Band  Eigenvalues  Occupancy  Eigenvalues  Occupancy
  0    88      6.53143    0.00694      6.52878    0.00694
  0    89      6.58501    0.00694      6.56524    0.00694
  0    90      8.42251    0.00000      8.42516    0.00000
  0    91      8.45211    0.00000      8.45608    0.00000

  1    88      6.56857    0.00694      6.56717    0.00694
  1    89      6.61929    0.00694      6.59719    0.00694
  1    90      8.37924    0.00000      8.38173    0.00000
  1    91      8.40866    0.00000      8.41423    0.00000

Fermi level: 7.20430

Gap: 1.681 eV
Transition (v -> c):
  (s=0, k=74, n=89, [0.08, -0.42, 0.12]) -> (s=0, k=86, n=90, [0.08, 0.08, 0.12])
Writing to born-0.01-8x+.gpw (mode='all')