User:   madkru@i008.nifl.fysik.dtu.dk
Date:   Wed Mar 24 13:44:43 2021
Arch:   x86_64
Pid:    26969
Python: 3.7.4
gpaw:   /home/niflheim/madkru/venv_folder/gpaw/gpaw (d224efde0f)
_gpaw:  /home/niflheim/madkru/venv_folder/gpaw/build/lib.linux-x86_64-ivybridge-3.7/
        _gpaw.cpython-37m-x86_64-linux-gnu.so (4fd39e8b1e)
ase:    /home/niflheim/madkru/venv_folder/ase/ase (version 3.21.0b1-4d5a73cb29)
numpy:  /home/niflheim/madkru/venv_folder/lib/python3.7/site-packages/numpy (version 1.19.4)
scipy:  /home/niflheim/madkru/venv_folder/lib/python3.7/site-packages/scipy (version 1.5.4)
units:  Angstrom and eV
cores: 64
OMP_NUM_THREADS: 1

Input parameters:
  convergence: {bands: occupied,
                density: 0.0001,
                eigenstates: 4e-08,
                energy: 0.0005,
                forces: 1e-06}
  kpts: [6 6 4]
  mode: {ecut: 600.0,
         gammacentered: False,
         name: pw}
  occupations: {fixmagmom: False,
                name: fermi-dirac,
                width: 0.001}
  symmetry: {point_group: False,
             time_reversal: False}

System changes: positions, numbers, cell, pbc, initial_charges, initial_magmoms

Initialize ...

O-setup:
  name: Oxygen
  id: 9b9d51c344dea68c822856295a461509
  Z: 8.0
  valence: 6
  core: 2
  charge: 0.0
  file: /home/modules/software/GPAW-setups/0.9.20000/O.LDA.gz
  compensation charges: gauss, rc=0.21, lmax=2
  cutoffs: 1.17(filt), 0.83(core),
  valence states:
                energy  radius
    2s(2.00)   -23.752   0.688
    2p(4.00)    -9.195   0.598
    *s           3.459   0.688
    *p          18.016   0.598
    *d           0.000   0.619

  Using partial waves for O as LCAO basis

Mn-setup:
  name: Manganese
  id: 0d715a8018be061a6e9ea6f2d364ac92
  Z: 25.0
  valence: 15
  core: 10
  charge: 0.0
  file: /home/modules/software/GPAW-setups/0.9.20000/Mn.LDA.gz
  compensation charges: gauss, rc=0.38, lmax=2
  cutoffs: 2.14(filt), 0.86(core),
  valence states:
                energy  radius
    3s(2.00)   -85.387   1.275
    4s(2.00)    -5.282   1.275
    3p(6.00)   -54.493   1.281
    4p(0.00)    -1.471   1.281
    3d(5.00)    -7.009   1.138
    *d          20.203   1.138

[...]

P-setup:
  name: Phosphorus
  id: a5561c299094968922a179ab894d2e2d
  Z: 15.0
  valence: 5
  core: 10
  charge: 0.0
  file: /home/modules/software/GPAW-setups/0.9.20000/P.LDA.gz
  compensation charges: gauss, rc=0.30, lmax=2
  cutoffs: 1.69(filt), 1.81(core),
  valence states:
                energy  radius
    3s(2.00)   -14.015   0.953
    3p(3.00)    -5.596   0.953
    *s          13.197   0.953
    *p          21.615   0.953
    *d           0.000   0.953

[...]

Li-setup:
  name: Lithium
  id: b73562207f97a71b6967473b66fe8b65
  Z: 3.0
  valence: 1
  core: 2
  charge: 0.0
  file: /home/modules/software/GPAW-setups/0.9.20000/Li.LDA.gz
  compensation charges: gauss, rc=0.33, lmax=2
  cutoffs: 1.91(filt), 2.55(core),
  valence states:
                energy  radius
    2s(1.00)    -2.874   1.058
    2p(0.00)    -1.126   1.058
    *s          24.338   1.058

  Using partial waves for Li as LCAO basis

Reference energy: -196157.275402

Spin-polarized calculation.
Magnetic moment: 0.000000

Convergence criteria:
  Maximum total energy change: 0.0005 eV / electron
  Maximum integral of absolute density change: 0.0001 electrons
  Maximum integral of absolute eigenstate change: 4e-08 eV^2
  Maximum change in atomic force: 1e-06 eV / Ang
  Maximum number of iterations: 333

Symmetries present (total): 1

  ( 1  0  0)
  ( 0  1  0)
  ( 0  0  1)

144 k-points: 6 x 6 x 4 Monkhorst-Pack grid
144 k-points in the irreducible part of the Brillouin zone
       k-points in crystal coordinates                weights
   0:    -0.41666667   -0.41666667   -0.37500000          1/144
   1:    -0.41666667   -0.41666667   -0.12500000          1/144
   2:    -0.41666667   -0.41666667    0.12500000          1/144
   3:    -0.41666667   -0.41666667    0.37500000          1/144
   4:    -0.41666667   -0.25000000   -0.37500000          1/144
   5:    -0.41666667   -0.25000000   -0.12500000          1/144
   6:    -0.41666667   -0.25000000    0.12500000          1/144
   7:    -0.41666667   -0.25000000    0.37500000          1/144
   8:    -0.41666667   -0.08333333   -0.37500000          1/144
   9:    -0.41666667   -0.08333333   -0.12500000          1/144
          ...
 143:     0.41666667    0.41666667    0.37500000          1/144

Wave functions: Plane wave expansion
  Cutoff energy: 600.000 eV
  Number of coefficients (min, max): 9132, 9161
  Pulay-stress correction: 0.000000 eV/Ang^3 (de/decut=0.000000)
  Using FFTW library
  ScaLapack parameters: grid=1x1, blocksize=None
  Wavefunction extrapolation:
    Improved wavefunction reuse through dual PAW basis

  Fermi-Dirac: width=0.0010 eV

Eigensolver
   Davidson(niter=2, smin=None, normalize=True)

Densities:
  Coarse grid: 60*35*27 grid
  Fine grid: 120*70*54 grid
  Total Charge: 0.000000

Density mixing:
  Method: difference
  Backend: pulay
  Linear mixing parameter: 0.05
  Mixing with 5 old densities
  Damping of long wave oscillations: 50

Hamiltonian:
  XC and Coulomb potentials evaluated on a 120*70*54 grid
  Using the LDA Exchange-Correlation functional

Total number of cores used: 64
Parallelization over k-points: 16
Domain decomposition: 2 x 2 x 1

Number of atoms: 28
Number of atomic orbitals: 148
Number of bands in calculation: 112
Number of valence electrons: 180
Bands to converge: occupied

... initialized

Initializing position-dependent things.

Density initialized from atomic densities
Creating initial wave functions:
  112 bands from LCAO basis set

               O     O  P  O
            PO           OMn     O
                  O          MO
            O        Li O
             Mn  Mn          OP
         O       O Li O
         Li     O P         O
       Li

Positions:
   0 O     -1.280122   -2.495595   -1.112331    ( 0.0000,  0.0000,  0.0000)
   1 O     -3.023238    2.918858    1.191723    ( 0.0000,  0.0000,  0.0000)
   2 O      1.997451    0.467212    1.441442    ( 0.0000,  0.0000,  0.0000)
   3 O      3.740343   -0.043905   -0.862614    ( 0.0000,  0.0000,  0.0000)
   4 O      1.997419    2.918835    1.441465    ( 0.0000,  0.0000,  0.0000)
   5 O      3.740372   -2.495531   -0.862587    ( 0.0000,  0.0000,  0.0000)
   6 O     -1.280154   -0.043891   -1.112309    ( 0.0000,  0.0000,  0.0000)
   7 O     -3.023210    0.467136    1.191750    ( 0.0000,  0.0000,  0.0000)
   8 O     -4.147405   -1.269737   -0.856207    ( 0.0000,  0.0000,  0.0000)
   9 O     -0.155894    1.692986    1.447725    ( 0.0000,  0.0000,  0.0000)
  10 O      4.864578    1.693016    1.185324    ( 0.0000,  0.0000,  0.0000)
  11 O      0.873163   -1.269706   -1.118625    ( 0.0000,  0.0000,  0.0000)
  12 Mn    -2.447108   -1.269902    0.302197    ( 0.0000,  0.0000,  1.0000)
  13 Mn    -1.866187    1.693156   -2.001927    ( 0.0000,  0.0000, -1.0000)
  14 Mn     3.154299    1.693181    0.026917    ( 0.0000,  0.0000, -1.0000)
  15 Mn     2.583444   -1.269877    2.331074    ( 0.0000,  0.0000,  1.0000)
  16 P     -0.543052   -1.269720   -1.734187    ( 0.0000,  0.0000,  0.0000)
  17 P     -3.760282    1.692974    0.569859    ( 0.0000,  0.0000,  0.0000)
  18 P      1.260300    1.693000    2.063344    ( 0.0000,  0.0000,  0.0000)
  19 P      4.477470   -1.269695   -0.240696    ( 0.0000,  0.0000,  0.0000)
  20 O     -0.544413   -1.269738    1.348523    ( 0.0000,  0.0000,  0.0000)
  21 O     -3.758895    1.692992   -0.955558    ( 0.0000,  0.0000,  0.0000)
  22 O      1.261690    1.693018   -1.019367    ( 0.0000,  0.0000,  0.0000)
  23 O      4.476045   -1.269713    1.284716    ( 0.0000,  0.0000,  0.0000)
  24 Li    -4.662027   -2.751322   -2.139440    ( 0.0000,  0.0000,  0.0000)
  25 Li     0.358703   -2.751277    0.164614    ( 0.0000,  0.0000,  0.0000)
  26 Li    -4.662011    0.211617   -2.139439    ( 0.0000,  0.0000,  0.0000)
  27 Li     0.358720    0.211628    0.164615    ( 0.0000,  0.0000,  0.0000)

Unit cell:
           periodic     x           y           z      points  spacing
  1. axis:    yes   10.041096    0.000054   -0.000022    60     0.1674
  2. axis:    yes    0.000032    5.925857    0.000001    35     0.1693
  3. axis:    yes   -0.000010    0.000001    4.608134    27     0.1707

  Lengths:  10.041096   5.925857   4.608134
  Angles:   89.999974  90.000250  89.999381

Effective grid spacing dv^(1/3) = 0.1691

                     log10-error:           total        iterations:
           time      wfs    density  force  energy       poisson  magmom
iter:   1  13:46:15                       -233.725791             +0.0000
iter:   2  13:46:35  -0.47  -0.95         -231.554418             +0.0035
iter:   3  13:46:55  -0.61  -1.00         -220.810761             +0.0036
iter:   4  13:47:14  -1.21  -1.31         -221.160664             +0.0949
iter:   5  13:47:34  -2.15  -1.38         -222.620677             +0.0525
iter:   6  13:47:54  -2.47  -1.37         -223.350001             +0.0204
iter:   7  13:48:14  -1.84  -1.55         -223.008020             +0.0164
iter:   8  13:48:33  -2.12  -1.93         -225.966183             +0.0066
iter:   9  13:48:53  -2.16  -2.07         -226.305309             -0.0001
iter:  10  13:49:13  -2.27  -2.14         -226.398483             +0.0004
iter:  11  13:49:32  -3.11  -2.29         -226.398353             +0.0001
iter:  12  13:49:52  -2.78  -2.33         -226.219350             -0.0000
iter:  13  13:50:12  -3.09  -2.49         -226.204223             +0.0000
iter:  14  13:50:31  -3.52  -2.76         -226.193675             +0.0000
iter:  15  13:50:51  -3.90  -2.81         -226.195749             -0.0000
iter:  16  13:51:11  -4.25  -2.83         -226.184011             -0.0000
iter:  17  13:51:30  -3.79  -2.95         -226.178773             -0.0000
iter:  18  13:51:50  -3.88  -3.06         -226.175517             -0.0000
iter:  19  13:52:10  -4.49  -3.10         -226.176011             -0.0000
iter:  20  13:52:29  -4.23  -3.18         -226.176180             -0.0000
iter:  21  13:52:49  -4.65  -3.53         -226.174905             -0.0000
iter:  22  13:53:09  -5.51  -3.81         -226.174998             -0.0000
iter:  23  13:53:28  -5.74  -3.84         -226.174898             +0.0000
iter:  24  13:53:48  -6.22  -3.92         -226.174869             -0.0000
iter:  25  13:54:08  -6.85  -3.95         -226.174855             -0.0000
iter:  26  13:54:27  -7.06  -4.01         -226.174849             -0.0000
iter:  27  13:54:47  -6.88  -4.08         -226.174842             -0.0000
iter:  28  13:55:07  -7.26  -4.18         -226.174840             -0.0000
iter:  29  13:55:26  -6.77  -4.22         -226.174843             -0.0000
iter:  30  13:55:51  -7.79  -4.32         -226.174840             -0.0000
iter:  31  13:56:10  -7.07  -4.40         -226.174838             +0.0000
iter:  32  13:56:35  -7.71  -4.52    -2.44-226.174835             +0.0000
iter:  33  13:56:59  -7.66  -4.55    -3.03-226.174834             +0.0000
iter:  34  13:57:23  -7.88  -4.57    -2.85-226.174834             +0.0000
iter:  35  13:57:48  -8.51  -4.60    -2.79-226.174833             +0.0000
iter:  36  13:58:12  -7.80  -4.64    -2.88-226.174832             +0.0000
iter:  37  13:58:36  -8.08  -4.75    -3.15-226.174833             -0.0000
iter:  38  13:58:56  -7.28  -4.82         -226.174833             -0.0000
iter:  39  13:59:20  -8.23  -5.11    -2.32-226.174832             -0.0000
iter:  40  13:59:45  -9.21  -5.38    -3.72-226.174832             -0.0000
iter:  41  14:00:09  -8.54  -5.45    -3.18-226.174832             -0.0000
iter:  42  14:00:33  -8.95  -5.71    -3.58-226.174832             -0.0000
iter:  43  14:00:58 -10.09  -5.89    -4.02-226.174832             -0.0000
iter:  44  14:01:22  -9.98  -5.91    -3.84-226.174832             -0.0000
iter:  45  14:01:46 -10.35  -5.96    -3.79-226.174832             -0.0000
iter:  46  14:02:10 -10.74  -6.11    -4.52-226.174832             -0.0000
iter:  47  14:02:35 -10.19  -6.13    -4.06-226.174832             -0.0000
iter:  48  14:02:59 -11.00  -6.19    -4.63-226.174832             -0.0000
iter:  49  14:03:24 -10.65  -6.28    -4.14-226.174832             -0.0000
iter:  50  14:03:48 -11.57  -6.43    -4.76-226.174832             -0.0000
iter:  51  14:04:12 -11.21  -6.50    -4.61-226.174832             -0.0000
iter:  52  14:04:37 -12.05  -6.60    -4.88-226.174832             -0.0000
iter:  53  14:05:01 -10.88  -6.65    -4.34-226.174832             -0.0000
iter:  54  14:05:25 -11.95  -6.96    -4.62-226.174832             -0.0000
iter:  55  14:05:50 -12.61  -7.10    -5.22-226.174832             -0.0000
iter:  56  14:06:14 -12.29  -7.13    -5.15-226.174832             -0.0000
iter:  57  14:06:38 -12.42  -7.24    -5.14-226.174832             -0.0000
iter:  58  14:07:03 -12.96  -7.28    -5.07-226.174832             -0.0000
iter:  59  14:07:27 -13.32  -7.69    -5.62-226.174832             -0.0000
iter:  60  14:07:52 -13.92  -7.78    -5.83-226.174832             -0.0000
iter:  61  14:08:16 -13.51  -7.81    -5.66-226.174832             -0.0000
iter:  62  14:08:40 -14.22  -7.90    -6.04-226.174832             -0.0000

Converged after 62 iterations.

Dipole moment: (18.317171, -2.307229, -4.523850) |e|*Ang

Total magnetic moment: (0.000000, 0.000000, -0.000000)
Local magnetic moments:
   0 O  ( 0.000000,  0.000000, -0.002197)
   1 O  ( 0.000000,  0.000000,  0.002052)
   2 O  ( 0.000000,  0.000000,  0.001788)
   3 O  ( 0.000000,  0.000000, -0.001781)
   4 O  ( 0.000000,  0.000000,  0.001783)
   5 O  ( 0.000000,  0.000000, -0.001776)
   6 O  ( 0.000000,  0.000000, -0.002203)
   7 O  ( 0.000000,  0.000000,  0.002057)
   8 O  ( 0.000000,  0.000000,  0.031576)
   9 O  ( 0.000000,  0.000000, -0.031133)
  10 O  ( 0.000000,  0.000000, -0.031069)
  11 O  ( 0.000000,  0.000000,  0.031165)
  12 Mn ( 0.000000,  0.000000,  4.395474)
  13 Mn ( 0.000000,  0.000000, -4.396036)
  14 Mn ( 0.000000,  0.000000, -4.395731)
  15 Mn ( 0.000000,  0.000000,  4.395771)
  16 P  ( 0.000000,  0.000000,  0.000656)
  17 P  ( 0.000000,  0.000000, -0.000792)
  18 P  ( 0.000000,  0.000000, -0.000876)
  19 P  ( 0.000000,  0.000000,  0.001011)
  20 O  ( 0.000000,  0.000000,  0.028049)
  21 O  ( 0.000000,  0.000000, -0.028363)
  22 O  ( 0.000000,  0.000000, -0.028454)
  23 O  ( 0.000000,  0.000000,  0.028405)
  24 Li ( 0.000000,  0.000000,  0.000018)
  25 Li ( 0.000000,  0.000000,  0.000003)
  26 Li ( 0.000000,  0.000000,  0.000018)
  27 Li ( 0.000000,  0.000000,  0.000003)

Energy contributions relative to reference atoms: (reference = -196157.275402)

Kinetic:       +277.639716
Potential:     -240.984441
External:        +0.000000
XC:            -264.718390
Entropy (-ST):   -0.000000
Local:           +1.888283
Free energy:   -226.174832
Extrapolated:  -226.174832

Spin contamination: 9.455898 electrons
Showing only first 2 kpts
                      Up                     Down
 Kpt  Band  Eigenvalues  Occupancy  Eigenvalues  Occupancy
  0    88      6.53130    0.00694      6.53112    0.00694
  0    89      6.56633    0.00694      6.56485    0.00694
  0    90      8.42640    0.00000      8.42665    0.00000
  0    91      8.44946    0.00000      8.44799    0.00000

  1    88      6.56933    0.00694      6.56954    0.00694
  1    89      6.59824    0.00694      6.59675    0.00694
  1    90      8.38295    0.00000      8.38238    0.00000
  1    91      8.40633    0.00000      8.40449    0.00000

Fermi level: 7.57566

Gap: 1.697 eV
Transition (v -> c):
  (s=0, k=49, n=89, [-0.08, -0.42, -0.12]) -> (s=1, k=61, n=90, [-0.08, 0.08, -0.12])
Writing to born-0.01-12x-.gpw (mode='all')