User:   madkru@i013.nifl.fysik.dtu.dk
Date:   Sun Mar 21 04:33:30 2021
Arch:   x86_64
Pid:    27943
Python: 3.7.4
gpaw:   /home/niflheim/madkru/venv_folder/gpaw/gpaw (d0d1ca1c71)
_gpaw:  /home/niflheim/madkru/venv_folder/gpaw/build/lib.linux-x86_64-ivybridge-3.7/
        _gpaw.cpython-37m-x86_64-linux-gnu.so (4fd39e8b1e)
ase:    /home/niflheim/madkru/venv_folder/ase/ase (version 3.21.0b1-7e6c206a91)
numpy:  /home/niflheim/madkru/venv_folder/lib/python3.7/site-packages/numpy (version 1.19.4)
scipy:  /home/niflheim/madkru/venv_folder/lib/python3.7/site-packages/scipy (version 1.5.4)
units:  Angstrom and eV
cores: 32
OMP_NUM_THREADS: 1

Input parameters:
  convergence: {bands: occupied,
                density: 0.0001,
                eigenstates: 4e-08,
                energy: 0.0005,
                forces: 1e-06}
  kpts: [6 6 4]
  mode: {ecut: 600.0,
         gammacentered: False,
         name: pw}
  occupations: {fixmagmom: False,
                name: fermi-dirac,
                width: 0.001}
  symmetry: {point_group: False,
             time_reversal: False}

System changes: positions, numbers, cell, pbc, initial_charges, initial_magmoms

Initialize ...

O-setup:
  name: Oxygen
  id: 9b9d51c344dea68c822856295a461509
  Z: 8.0
  valence: 6
  core: 2
  charge: 0.0
  file: /home/modules/software/GPAW-setups/0.9.20000/O.LDA.gz
  compensation charges: gauss, rc=0.21, lmax=2
  cutoffs: 1.17(filt), 0.83(core),
  valence states:
                energy  radius
    2s(2.00)   -23.752   0.688
    2p(4.00)    -9.195   0.598
    *s           3.459   0.688
    *p          18.016   0.598
    *d           0.000   0.619

  Using partial waves for O as LCAO basis

Mn-setup:
  name: Manganese
  id: 0d715a8018be061a6e9ea6f2d364ac92
  Z: 25.0
  valence: 15
  core: 10
  charge: 0.0
  file: /home/modules/software/GPAW-setups/0.9.20000/Mn.LDA.gz
  compensation charges: gauss, rc=0.38, lmax=2
  cutoffs: 2.14(filt), 0.86(core),
  valence states:
                energy  radius
    3s(2.00)   -85.387   1.275
    4s(2.00)    -5.282   1.275
    3p(6.00)   -54.493   1.281
    4p(0.00)    -1.471   1.281
    3d(5.00)    -7.009   1.138
    *d          20.203   1.138

[...]

P-setup:
  name: Phosphorus
  id: a5561c299094968922a179ab894d2e2d
  Z: 15.0
  valence: 5
  core: 10
  charge: 0.0
  file: /home/modules/software/GPAW-setups/0.9.20000/P.LDA.gz
  compensation charges: gauss, rc=0.30, lmax=2
  cutoffs: 1.69(filt), 1.81(core),
  valence states:
                energy  radius
    3s(2.00)   -14.015   0.953
    3p(3.00)    -5.596   0.953
    *s          13.197   0.953
    *p          21.615   0.953
    *d           0.000   0.953

[...]

Li-setup:
  name: Lithium
  id: b73562207f97a71b6967473b66fe8b65
  Z: 3.0
  valence: 1
  core: 2
  charge: 0.0
  file: /home/modules/software/GPAW-setups/0.9.20000/Li.LDA.gz
  compensation charges: gauss, rc=0.33, lmax=2
  cutoffs: 1.91(filt), 2.55(core),
  valence states:
                energy  radius
    2s(1.00)    -2.874   1.058
    2p(0.00)    -1.126   1.058
    *s          24.338   1.058

  Using partial waves for Li as LCAO basis

Reference energy: -196157.275402

Spin-polarized calculation.
Magnetic moment: 0.000000

Convergence criteria:
  Maximum total energy change: 0.0005 eV / electron
  Maximum integral of absolute density change: 0.0001 electrons
  Maximum integral of absolute eigenstate change: 4e-08 eV^2
  Maximum change in atomic force: 1e-06 eV / Ang
  Maximum number of iterations: 333

Symmetries present (total): 1

  ( 1  0  0)
  ( 0  1  0)
  ( 0  0  1)

144 k-points: 6 x 6 x 4 Monkhorst-Pack grid
144 k-points in the irreducible part of the Brillouin zone
       k-points in crystal coordinates                weights
   0:    -0.41666667   -0.41666667   -0.37500000          1/144
   1:    -0.41666667   -0.41666667   -0.12500000          1/144
   2:    -0.41666667   -0.41666667    0.12500000          1/144
   3:    -0.41666667   -0.41666667    0.37500000          1/144
   4:    -0.41666667   -0.25000000   -0.37500000          1/144
   5:    -0.41666667   -0.25000000   -0.12500000          1/144
   6:    -0.41666667   -0.25000000    0.12500000          1/144
   7:    -0.41666667   -0.25000000    0.37500000          1/144
   8:    -0.41666667   -0.08333333   -0.37500000          1/144
   9:    -0.41666667   -0.08333333   -0.12500000          1/144
          ...
 143:     0.41666667    0.41666667    0.37500000          1/144

Wave functions: Plane wave expansion
  Cutoff energy: 600.000 eV
  Number of coefficients (min, max): 9132, 9161
  Pulay-stress correction: 0.000000 eV/Ang^3 (de/decut=0.000000)
  Using FFTW library
  ScaLapack parameters: grid=1x1, blocksize=None
  Wavefunction extrapolation:
    Improved wavefunction reuse through dual PAW basis

  Fermi-Dirac: width=0.0010 eV

Eigensolver
   Davidson(niter=2, smin=None, normalize=True)

Densities:
  Coarse grid: 60*35*27 grid
  Fine grid: 120*70*54 grid
  Total Charge: 0.000000

Density mixing:
  Method: difference
  Backend: pulay
  Linear mixing parameter: 0.05
  Mixing with 5 old densities
  Damping of long wave oscillations: 50

Hamiltonian:
  XC and Coulomb potentials evaluated on a 120*70*54 grid
  Using the LDA Exchange-Correlation functional

Total number of cores used: 32
Parallelization over k-points: 16
Domain decomposition: 2 x 1 x 1

Number of atoms: 28
Number of atomic orbitals: 148
Number of bands in calculation: 112
Number of valence electrons: 180
Bands to converge: occupied

... initialized

Initializing position-dependent things.

Density initialized from atomic densities
Creating initial wave functions:
  112 bands from LCAO basis set

               O     O  P  O
            PO           OMn     O
                  O          MO
            O        Li O
             Mn  Mn          OP
         O       O Li O
         Li     O P         O
       Li

Positions:
   0 O     -1.280122   -2.505595   -1.112331    ( 0.0000,  0.0000,  0.0000)
   1 O     -3.023238    2.918858    1.191723    ( 0.0000,  0.0000,  0.0000)
   2 O      1.997451    0.467212    1.441442    ( 0.0000,  0.0000,  0.0000)
   3 O      3.740343   -0.043905   -0.862614    ( 0.0000,  0.0000,  0.0000)
   4 O      1.997419    2.918835    1.441465    ( 0.0000,  0.0000,  0.0000)
   5 O      3.740372   -2.495531   -0.862587    ( 0.0000,  0.0000,  0.0000)
   6 O     -1.280154   -0.043891   -1.112309    ( 0.0000,  0.0000,  0.0000)
   7 O     -3.023210    0.467136    1.191750    ( 0.0000,  0.0000,  0.0000)
   8 O     -4.147405   -1.269737   -0.856207    ( 0.0000,  0.0000,  0.0000)
   9 O     -0.155894    1.692986    1.447725    ( 0.0000,  0.0000,  0.0000)
  10 O      4.864578    1.693016    1.185324    ( 0.0000,  0.0000,  0.0000)
  11 O      0.873163   -1.269706   -1.118625    ( 0.0000,  0.0000,  0.0000)
  12 Mn    -2.437108   -1.269902    0.302197    ( 0.0000,  0.0000,  1.0000)
  13 Mn    -1.866187    1.693156   -2.001927    ( 0.0000,  0.0000, -1.0000)
  14 Mn     3.154299    1.693181    0.026917    ( 0.0000,  0.0000, -1.0000)
  15 Mn     2.583444   -1.269877    2.331074    ( 0.0000,  0.0000,  1.0000)
  16 P     -0.543052   -1.269720   -1.734187    ( 0.0000,  0.0000,  0.0000)
  17 P     -3.760282    1.692974    0.569859    ( 0.0000,  0.0000,  0.0000)
  18 P      1.260300    1.693000    2.063344    ( 0.0000,  0.0000,  0.0000)
  19 P      4.477470   -1.269695   -0.240696    ( 0.0000,  0.0000,  0.0000)
  20 O     -0.544413   -1.269738    1.348523    ( 0.0000,  0.0000,  0.0000)
  21 O     -3.758895    1.692992   -0.955558    ( 0.0000,  0.0000,  0.0000)
  22 O      1.261690    1.693018   -1.019367    ( 0.0000,  0.0000,  0.0000)
  23 O      4.476045   -1.269713    1.284716    ( 0.0000,  0.0000,  0.0000)
  24 Li    -4.662027   -2.751322   -2.139440    ( 0.0000,  0.0000,  0.0000)
  25 Li     0.358703   -2.751277    0.164614    ( 0.0000,  0.0000,  0.0000)
  26 Li    -4.662011    0.211617   -2.139439    ( 0.0000,  0.0000,  0.0000)
  27 Li     0.358720    0.211628    0.164615    ( 0.0000,  0.0000,  0.0000)

Unit cell:
           periodic     x           y           z      points  spacing
  1. axis:    yes   10.041096    0.000054   -0.000022    60     0.1674
  2. axis:    yes    0.000032    5.925857    0.000001    35     0.1693
  3. axis:    yes   -0.000010    0.000001    4.608134    27     0.1707

  Lengths:  10.041096   5.925857   4.608134
  Angles:   89.999974  90.000250  89.999381

Effective grid spacing dv^(1/3) = 0.1691

                     log10-error:           total        iterations:
           time      wfs    density  force  energy       poisson  magmom
iter:   1  04:36:20                       -233.734956             +0.0000
iter:   2  04:36:56  -0.47  -0.95         -231.549757             +0.0039
iter:   3  04:37:32  -0.60  -1.00         -220.826649             +0.0041
iter:   4  04:38:09  -1.22  -1.31         -221.499232             +0.1717
iter:   5  04:38:45  -2.15  -1.37         -222.463340             +0.0983
iter:   6  04:39:21  -2.37  -1.38         -223.688667             +0.0210
iter:   7  04:39:57  -1.98  -1.55         -223.388365             +0.0322
iter:   8  04:40:34  -2.26  -1.96         -225.952382             -0.0363
iter:   9  04:41:10  -2.24  -2.08         -226.316669             -0.0240
iter:  10  04:41:46  -2.26  -2.14         -226.388614             -0.0076
iter:  11  04:42:23  -3.01  -2.28         -226.402070             -0.0025
iter:  12  04:42:59  -2.65  -2.34         -226.217788             +0.0007
iter:  13  04:43:35  -2.87  -2.44         -226.258451             -0.0004
iter:  14  04:44:11  -3.14  -2.67         -226.186452             -0.0002
iter:  15  04:44:48  -2.92  -2.70         -226.185069             -0.0001
iter:  16  04:45:24  -3.33  -2.60         -226.175857             -0.0001
iter:  17  04:46:00  -4.76  -3.30         -226.176731             -0.0000
iter:  18  04:46:36  -4.09  -3.36         -226.174467             +0.0000
iter:  19  04:47:13  -4.86  -3.40         -226.174028             +0.0000
iter:  20  04:47:49  -5.86  -3.68         -226.174009             -0.0000
iter:  21  04:48:25  -5.65  -3.71         -226.173999             -0.0000
iter:  22  04:49:01  -5.58  -3.78         -226.173926             -0.0000
iter:  23  04:49:38  -6.87  -3.94         -226.173912             -0.0000
iter:  24  04:50:14  -6.06  -4.07         -226.173917             +0.0000
iter:  25  04:50:50  -6.33  -4.33         -226.173894             -0.0000
iter:  26  04:51:26  -6.92  -4.43         -226.173892             +0.0000
iter:  27  04:52:02  -7.13  -4.50         -226.173890             +0.0000
iter:  28  04:52:38  -7.01  -4.57         -226.173887             +0.0000
iter:  29  04:53:24  -8.36  -4.84         -226.173887             +0.0000
iter:  30  04:54:09  -7.82  -4.89    -2.49-226.173887             -0.0000
iter:  31  04:54:54  -8.75  -5.21    -3.13-226.173887             -0.0000
iter:  32  04:55:39  -8.18  -5.28    -3.04-226.173887             -0.0000
iter:  33  04:56:24  -8.29  -5.26    -2.94-226.173887             -0.0000
iter:  34  04:57:09  -9.02  -5.53    -3.47-226.173887             -0.0000
iter:  35  04:57:55  -9.52  -5.72    -3.75-226.173887             -0.0000
iter:  36  04:58:40  -9.35  -5.74    -3.69-226.173887             -0.0000
iter:  37  04:59:25  -9.86  -5.81    -3.41-226.173887             -0.0000
iter:  38  05:00:10 -10.44  -6.14    -4.17-226.173887             -0.0000
iter:  39  05:00:55 -10.24  -6.18    -3.80-226.173887             -0.0000
iter:  40  05:01:41 -11.03  -6.44    -4.07-226.173887             -0.0000
iter:  41  05:02:26 -10.88  -6.55    -4.47-226.173887             -0.0000
iter:  42  05:03:11 -11.19  -6.57    -4.36-226.173887             -0.0000
iter:  43  05:03:56 -12.44  -6.86    -4.83-226.173887             +0.0000
iter:  44  05:04:41 -12.29  -6.90    -4.86-226.173887             +0.0000
iter:  45  05:05:26 -11.95  -6.97    -4.82-226.173887             +0.0000
iter:  46  05:06:12 -12.30  -7.01    -4.81-226.173887             +0.0000
iter:  47  05:06:57 -13.36  -7.11    -5.56-226.173887             -0.0000
iter:  48  05:07:42 -13.23  -7.15    -5.56-226.173887             -0.0000
iter:  49  05:08:27 -13.31  -7.21    -5.42-226.173887             +0.0000
iter:  50  05:09:12 -13.08  -7.38    -5.47-226.173887             -0.0000
iter:  51  05:09:58 -14.37  -7.48    -6.12-226.173887             -0.0000

Converged after 51 iterations.

Dipole moment: (18.326012, -2.302633, -4.524059) |e|*Ang

Total magnetic moment: (0.000000, 0.000000, -0.000000)
Local magnetic moments:
   0 O  ( 0.000000,  0.000000, -0.002216)
   1 O  ( 0.000000,  0.000000,  0.001776)
   2 O  ( 0.000000,  0.000000,  0.001822)
   3 O  ( 0.000000,  0.000000, -0.001801)
   4 O  ( 0.000000,  0.000000,  0.001823)
   5 O  ( 0.000000,  0.000000, -0.001793)
   6 O  ( 0.000000,  0.000000, -0.001669)
   7 O  ( 0.000000,  0.000000,  0.002053)
   8 O  ( 0.000000,  0.000000,  0.031096)
   9 O  ( 0.000000,  0.000000, -0.031106)
  10 O  ( 0.000000,  0.000000, -0.031115)
  11 O  ( 0.000000,  0.000000,  0.030852)
  12 Mn ( 0.000000,  0.000000,  4.395422)
  13 Mn ( 0.000000,  0.000000, -4.393906)
  14 Mn ( 0.000000,  0.000000, -4.395758)
  15 Mn ( 0.000000,  0.000000,  4.395619)
  16 P  ( 0.000000,  0.000000,  0.000469)
  17 P  ( 0.000000,  0.000000, -0.000880)
  18 P  ( 0.000000,  0.000000, -0.000891)
  19 P  ( 0.000000,  0.000000,  0.000862)
  20 O  ( 0.000000,  0.000000,  0.028258)
  21 O  ( 0.000000,  0.000000, -0.028465)
  22 O  ( 0.000000,  0.000000, -0.028419)
  23 O  ( 0.000000,  0.000000,  0.028441)
  24 Li ( 0.000000,  0.000000, -0.000001)
  25 Li ( 0.000000,  0.000000, -0.000032)
  26 Li ( 0.000000,  0.000000, -0.000001)
  27 Li ( 0.000000,  0.000000, -0.000002)

Energy contributions relative to reference atoms: (reference = -196157.275402)

Kinetic:       +277.120354
Potential:     -240.576578
External:        +0.000000
XC:            -264.606999
Entropy (-ST):   -0.000000
Local:           +1.889337
Free energy:   -226.173887
Extrapolated:  -226.173887

Spin contamination: 9.453982 electrons
Showing only first 2 kpts
                      Up                     Down
 Kpt  Band  Eigenvalues  Occupancy  Eigenvalues  Occupancy
  0    88      6.52817    0.00694      6.53649    0.00694
  0    89      6.56157    0.00694      6.57102    0.00694
  0    90      8.42985    0.00000      8.42444    0.00000
  0    91      8.45368    0.00000      8.44632    0.00000

  1    88      6.56664    0.00694      6.57479    0.00694
  1    89      6.59328    0.00694      6.60311    0.00694
  1    90      8.38624    0.00000      8.37947    0.00000
  1    91      8.41012    0.00000      8.40267    0.00000

Fermi level: 7.39843

Gap: 1.689 eV
Transition (v -> c):
  (s=1, k=70, n=89, [-0.08, 0.42, 0.12]) -> (s=1, k=61, n=90, [-0.08, 0.08, -0.12])
Writing to born-0.01-0y-.gpw (mode='all')