User:   madkru@g043.nifl.fysik.dtu.dk
Date:   Tue Mar 30 00:26:57 2021
Arch:   x86_64
Pid:    9629
Python: 3.8.6
gpaw:   /home/niflheim/madkru/venv_madkru/gpaw/gpaw (e6f0d78a31)
_gpaw:  /home/niflheim/madkru/venv_madkru/gpaw/build/lib.linux-x86_64-sandybridge-3.8/
        _gpaw.cpython-38-x86_64-linux-gnu.so (e6f0d78a31)
ase:    /home/niflheim/madkru/venv_madkru/ase/ase (version 3.22.0b1-4d5a73cb29)
numpy:  /home/modules/software/SciPy-bundle/2020.11-foss-2020b/lib/python3.8/site-packages/numpy (version 1.19.4)
scipy:  /home/modules/software/SciPy-bundle/2020.11-foss-2020b/lib/python3.8/site-packages/scipy (version 1.5.4)
units:  Angstrom and eV
cores: 64
OpenMP: False
OMP_NUM_THREADS: 1

Input parameters:
  convergence: {bands: occupied,
                density: 0.0001,
                eigenstates: 4e-08,
                energy: 0.0005,
                forces: 1e-06}
  kpts: [6 6 4]
  mode: {ecut: 600.0,
         gammacentered: False,
         name: pw}
  occupations: {fixmagmom: False,
                name: fermi-dirac,
                width: 0.001}
  symmetry: {point_group: False,
             time_reversal: False}

System changes: positions, numbers, cell, pbc, initial_charges, initial_magmoms

Initialize ...

O-setup:
  name: Oxygen
  id: 9b9d51c344dea68c822856295a461509
  Z: 8.0
  valence: 6
  core: 2
  charge: 0.0
  file: /home/modules/software/GPAW-setups/0.9.20000/O.LDA.gz
  compensation charges: gauss, rc=0.21, lmax=2
  cutoffs: 1.17(filt), 0.83(core),
  valence states:
                energy  radius
    2s(2.00)   -23.752   0.688
    2p(4.00)    -9.195   0.598
    *s           3.459   0.688
    *p          18.016   0.598
    *d           0.000   0.619

  Using partial waves for O as LCAO basis

Mn-setup:
  name: Manganese
  id: 0d715a8018be061a6e9ea6f2d364ac92
  Z: 25.0
  valence: 15
  core: 10
  charge: 0.0
  file: /home/modules/software/GPAW-setups/0.9.20000/Mn.LDA.gz
  compensation charges: gauss, rc=0.38, lmax=2
  cutoffs: 2.14(filt), 0.86(core),
  valence states:
                energy  radius
    3s(2.00)   -85.387   1.275
    4s(2.00)    -5.282   1.275
    3p(6.00)   -54.493   1.281
    4p(0.00)    -1.471   1.281
    3d(5.00)    -7.009   1.138
    *d          20.203   1.138

[...]

P-setup:
  name: Phosphorus
  id: a5561c299094968922a179ab894d2e2d
  Z: 15.0
  valence: 5
  core: 10
  charge: 0.0
  file: /home/modules/software/GPAW-setups/0.9.20000/P.LDA.gz
  compensation charges: gauss, rc=0.30, lmax=2
  cutoffs: 1.69(filt), 1.81(core),
  valence states:
                energy  radius
    3s(2.00)   -14.015   0.953
    3p(3.00)    -5.596   0.953
    *s          13.197   0.953
    *p          21.615   0.953
    *d           0.000   0.953

[...]

Li-setup:
  name: Lithium
  id: b73562207f97a71b6967473b66fe8b65
  Z: 3.0
  valence: 1
  core: 2
  charge: 0.0
  file: /home/modules/software/GPAW-setups/0.9.20000/Li.LDA.gz
  compensation charges: gauss, rc=0.33, lmax=2
  cutoffs: 1.91(filt), 2.55(core),
  valence states:
                energy  radius
    2s(1.00)    -2.874   1.058
    2p(0.00)    -1.126   1.058
    *s          24.338   1.058

  Using partial waves for Li as LCAO basis

Reference energy: -196157.275402

Spin-polarized calculation.
Magnetic moment: 0.000000

Convergence criteria:
  Maximum total energy change: 0.0005 eV / electron
  Maximum integral of absolute density change: 0.0001 electrons
  Maximum integral of absolute eigenstate change: 4e-08 eV^2
  Maximum change in atomic force: 1e-06 eV / Ang
  Maximum number of iterations: 333

Symmetries present (total): 1

  ( 1  0  0)
  ( 0  1  0)
  ( 0  0  1)

144 k-points: 6 x 6 x 4 Monkhorst-Pack grid
144 k-points in the irreducible part of the Brillouin zone
       k-points in crystal coordinates                weights
   0:    -0.41666667   -0.41666667   -0.37500000          1/144
   1:    -0.41666667   -0.41666667   -0.12500000          1/144
   2:    -0.41666667   -0.41666667    0.12500000          1/144
   3:    -0.41666667   -0.41666667    0.37500000          1/144
   4:    -0.41666667   -0.25000000   -0.37500000          1/144
   5:    -0.41666667   -0.25000000   -0.12500000          1/144
   6:    -0.41666667   -0.25000000    0.12500000          1/144
   7:    -0.41666667   -0.25000000    0.37500000          1/144
   8:    -0.41666667   -0.08333333   -0.37500000          1/144
   9:    -0.41666667   -0.08333333   -0.12500000          1/144
          ...
 143:     0.41666667    0.41666667    0.37500000          1/144

Wave functions: Plane wave expansion
  Cutoff energy: 600.000 eV
  Number of coefficients (min, max): 9132, 9161
  Pulay-stress correction: 0.000000 eV/Ang^3 (de/decut=0.000000)
  Using FFTW library
  ScaLapack parameters: grid=1x1, blocksize=None
  Wavefunction extrapolation:
    Improved wavefunction reuse through dual PAW basis

  Fermi-Dirac: width=0.0010 eV

Eigensolver
   Davidson(niter=2)

Densities:
  Coarse grid: 60*35*27 grid
  Fine grid: 120*70*54 grid
  Total Charge: 0.000000

Density mixing:
  Method: difference
  Backend: pulay
  Linear mixing parameter: 0.05
  Mixing with 5 old densities
  Damping of long wave oscillations: 50

Hamiltonian:
  XC and Coulomb potentials evaluated on a 120*70*54 grid
  Using the LDA Exchange-Correlation functional

Total number of cores used: 64
Parallelization over k-points: 16
Domain decomposition: 2 x 2 x 1

Number of atoms: 28
Number of atomic orbitals: 148
Number of bands in calculation: 112
Number of valence electrons: 180
Bands to converge: occupied

... initialized

Initializing position-dependent things.

Density initialized from atomic densities
Creating initial wave functions:
  112 bands from LCAO basis set

               O     O  P  O
            PO           OMn     O
                  O          MO
            O        Li O
             Mn  Mn          OP
         O       O Li O
         Li     O P         O
       Li

Positions:
   0 O     -1.280122   -2.495595   -1.112331    ( 0.0000,  0.0000,  0.0000)
   1 O     -3.023238    2.918858    1.191723    ( 0.0000,  0.0000,  0.0000)
   2 O      1.997451    0.467212    1.441442    ( 0.0000,  0.0000,  0.0000)
   3 O      3.740343   -0.043905   -0.862614    ( 0.0000,  0.0000,  0.0000)
   4 O      1.997419    2.918835    1.441465    ( 0.0000,  0.0000,  0.0000)
   5 O      3.740372   -2.495531   -0.862587    ( 0.0000,  0.0000,  0.0000)
   6 O     -1.280154   -0.043891   -1.112309    ( 0.0000,  0.0000,  0.0000)
   7 O     -3.023210    0.467136    1.191750    ( 0.0000,  0.0000,  0.0000)
   8 O     -4.147405   -1.269737   -0.856207    ( 0.0000,  0.0000,  0.0000)
   9 O     -0.155894    1.692986    1.447725    ( 0.0000,  0.0000,  0.0000)
  10 O      4.864578    1.693016    1.185324    ( 0.0000,  0.0000,  0.0000)
  11 O      0.873163   -1.269706   -1.118625    ( 0.0000,  0.0000,  0.0000)
  12 Mn    -2.437108   -1.269902    0.302197    ( 0.0000,  0.0000,  1.0000)
  13 Mn    -1.866187    1.693156   -2.001927    ( 0.0000,  0.0000, -1.0000)
  14 Mn     3.154299    1.693181    0.026917    ( 0.0000,  0.0000, -1.0000)
  15 Mn     2.583444   -1.269877    2.331074    ( 0.0000,  0.0000,  1.0000)
  16 P     -0.543052   -1.269720   -1.734187    ( 0.0000,  0.0000,  0.0000)
  17 P     -3.760282    1.692974    0.569859    ( 0.0000,  0.0000,  0.0000)
  18 P      1.260300    1.693000    2.063344    ( 0.0000,  0.0000,  0.0000)
  19 P      4.477470   -1.269695   -0.240696    ( 0.0000,  0.0000,  0.0000)
  20 O     -0.544413   -1.269738    1.348523    ( 0.0000,  0.0000,  0.0000)
  21 O     -3.758895    1.692992   -0.955558    ( 0.0000,  0.0000,  0.0000)
  22 O      1.261690    1.693018   -1.019367    ( 0.0000,  0.0000,  0.0000)
  23 O      4.476045   -1.269713    1.284716    ( 0.0000,  0.0000,  0.0000)
  24 Li    -4.662027   -2.751322   -2.139440    ( 0.0000,  0.0000,  0.0000)
  25 Li     0.358703   -2.751277    0.164614    ( 0.0000,  0.0000,  0.0000)
  26 Li    -4.662011    0.211617   -2.139439    ( 0.0000,  0.0000,  0.0000)
  27 Li     0.358720    0.211628    0.174615    ( 0.0000,  0.0000,  0.0000)

Unit cell:
           periodic     x           y           z      points  spacing
  1. axis:    yes   10.041096    0.000054   -0.000022    60     0.1674
  2. axis:    yes    0.000032    5.925857    0.000001    35     0.1693
  3. axis:    yes   -0.000010    0.000001    4.608134    27     0.1707

  Lengths:  10.041096   5.925857   4.608134
  Angles:   89.999974  90.000250  89.999381

Effective grid spacing dv^(1/3) = 0.1691

                     log10-error:           total        iterations:
           time      wfs    density  force  energy       poisson  magmom
iter:   1  00:28:40                       -233.730196             +0.0000
iter:   2  00:29:00  -0.47  -0.95         -231.549923             +0.0015
iter:   3  00:29:20  -0.61  -1.00         -220.798455             +0.0015
iter:   4  00:29:40  -1.18  -1.31         -220.801505             +0.3140
iter:   5  00:30:00  -2.07  -1.40         -222.993008             +0.1476
iter:   6  00:30:20  -2.08  -1.38         -224.655218             +0.4793
iter:   7  00:30:40  -2.01  -1.46         -223.439468             +0.2063
iter:   8  00:31:00  -2.32  -1.61         -224.561819             +0.1358
iter:   9  00:31:20  -2.63  -1.91         -225.960530             +0.1385
iter:  10  00:31:40  -2.51  -1.96         -226.529212             +0.3299
iter:  11  00:32:00  -2.50  -1.97         -226.376526             +0.0977
iter:  12  00:32:20  -2.56  -2.07         -226.319831             +0.0260
iter:  13  00:32:40  -2.64  -2.17         -226.219818             +0.0166
iter:  14  00:33:00  -2.55  -2.36         -226.229358             +0.0064
iter:  15  00:33:20  -3.29  -2.53         -226.213242             +0.0047
iter:  16  00:33:40  -2.98  -2.70         -226.182015             +0.0006
iter:  17  00:34:00  -3.73  -2.97         -226.175745             +0.0006
iter:  18  00:34:20  -4.77  -3.22         -226.175872             +0.0002
iter:  19  00:34:40  -4.42  -3.26         -226.176530             +0.0001
iter:  20  00:35:00  -4.87  -3.34         -226.176288             +0.0001
iter:  21  00:35:20  -4.94  -3.42         -226.175752             +0.0000
iter:  22  00:35:40  -4.79  -3.49         -226.175557             +0.0000
iter:  23  00:36:00  -5.43  -3.54         -226.175445             +0.0000
iter:  24  00:36:20  -5.31  -3.60         -226.175259             -0.0000
iter:  25  00:36:39  -5.61  -3.94         -226.175325             +0.0000
iter:  26  00:36:59  -5.70  -4.01         -226.175351             -0.0000
iter:  27  00:37:19  -5.61  -4.02         -226.175209             +0.0000
iter:  28  00:37:39  -6.98  -4.50         -226.175211             +0.0000
iter:  29  00:37:59  -7.21  -4.54         -226.175216             -0.0000
iter:  30  00:38:19  -6.74  -4.59         -226.175211             -0.0000
iter:  31  00:38:39  -7.36  -4.80         -226.175211             -0.0000
iter:  32  00:39:04  -8.10  -4.82         -226.175212             -0.0000
iter:  33  00:39:29  -7.44  -4.94    -2.68-226.175210             -0.0000
iter:  34  00:39:54  -8.55  -5.44    -3.08-226.175210             -0.0000
iter:  35  00:40:19  -8.59  -5.52    -3.31-226.175210             +0.0000
iter:  36  00:40:44  -9.69  -5.69    -3.91-226.175210             -0.0000
iter:  37  00:41:09  -9.32  -5.78    -3.49-226.175210             -0.0000
iter:  38  00:41:34 -10.30  -6.09    -3.93-226.175210             -0.0000
iter:  39  00:41:59  -9.68  -6.20    -3.76-226.175210             -0.0000
iter:  40  00:42:24 -10.37  -6.30    -4.10-226.175210             -0.0000
iter:  41  00:42:49 -10.73  -6.47    -4.24-226.175210             -0.0000
iter:  42  00:43:14 -11.58  -6.57    -4.82-226.175210             -0.0000
iter:  43  00:43:38 -11.93  -6.64    -4.88-226.175210             +0.0000
iter:  44  00:44:03 -11.60  -6.76    -4.36-226.175210             +0.0000
iter:  45  00:44:28 -11.25  -6.82    -4.55-226.175210             +0.0000
iter:  46  00:44:53 -12.31  -6.99    -5.34-226.175210             +0.0000
iter:  47  00:45:18 -11.75  -7.03    -4.74-226.175210             +0.0000
iter:  48  00:45:43 -12.22  -7.17    -5.08-226.175210             +0.0000
iter:  49  00:46:08 -12.18  -7.20    -4.88-226.175210             +0.0000
iter:  50  00:46:33 -13.32  -7.43    -5.86-226.175210             +0.0000
iter:  51  00:46:58 -12.79  -7.47    -5.25-226.175210             +0.0000
iter:  52  00:47:23 -13.22  -7.70    -5.44-226.175210             +0.0000
iter:  53  00:47:48 -14.51  -7.89    -6.34-226.175210             +0.0000

Converged after 53 iterations.

Dipole moment: (18.327935, -2.306912, -4.571620) |e|*Ang

Total magnetic moment: (0.000000, 0.000000, 0.000000)
Local magnetic moments:
   0 O  ( 0.000000,  0.000000, -0.001814)
   1 O  ( 0.000000,  0.000000,  0.001808)
   2 O  ( 0.000000,  0.000000,  0.001815)
   3 O  ( 0.000000,  0.000000, -0.001811)
   4 O  ( 0.000000,  0.000000,  0.001799)
   5 O  ( 0.000000,  0.000000, -0.001804)
   6 O  ( 0.000000,  0.000000, -0.001809)
   7 O  ( 0.000000,  0.000000,  0.001812)
   8 O  ( 0.000000,  0.000000,  0.031101)
   9 O  ( 0.000000,  0.000000, -0.031053)
  10 O  ( 0.000000,  0.000000, -0.031093)
  11 O  ( 0.000000,  0.000000,  0.031140)
  12 Mn ( 0.000000,  0.000000,  4.395735)
  13 Mn ( 0.000000,  0.000000, -4.395793)
  14 Mn ( 0.000000,  0.000000, -4.395768)
  15 Mn ( 0.000000,  0.000000,  4.395742)
  16 P  ( 0.000000,  0.000000,  0.000864)
  17 P  ( 0.000000,  0.000000, -0.000864)
  18 P  ( 0.000000,  0.000000, -0.000873)
  19 P  ( 0.000000,  0.000000,  0.000870)
  20 O  ( 0.000000,  0.000000,  0.028398)
  21 O  ( 0.000000,  0.000000, -0.028422)
  22 O  ( 0.000000,  0.000000, -0.028439)
  23 O  ( 0.000000,  0.000000,  0.028413)
  24 Li ( 0.000000,  0.000000,  0.000000)
  25 Li ( 0.000000,  0.000000,  0.000002)
  26 Li ( 0.000000,  0.000000, -0.000000)
  27 Li ( 0.000000,  0.000000, -0.000012)

Energy contributions relative to reference atoms: (reference = -196157.275402)

Kinetic:       +277.625564
Potential:     -240.967732
External:        +0.000000
XC:            -264.721479
Entropy (-ST):   -0.000000
Local:           +1.888437
Free energy:   -226.175210
Extrapolated:  -226.175210

Spin contamination: 9.455315 electrons
Showing only first 2 kpts
                      Up                     Down
 Kpt  Band  Eigenvalues  Occupancy  Eigenvalues  Occupancy
  0    88      6.53053    1.00000      6.53045    1.00000
  0    89      6.56412    1.00000      6.56407    1.00000
  0    90      8.42684    0.00000      8.42666    0.00000
  0    91      8.44844    0.00000      8.44825    0.00000

  1    88      6.56901    1.00000      6.56886    1.00000
  1    89      6.59605    1.00000      6.59604    1.00000
  1    90      8.38310    0.00000      8.38308    0.00000
  1    91      8.40519    0.00000      8.40527    0.00000

Fermi level: 7.81275

Gap: 1.699 eV
Transition (v -> c):
  (s=0, k=73, n=89, [0.08, -0.42, -0.12]) -> (s=0, k=62, n=90, [-0.08, 0.08, 0.12])
Writing to born-0.01-27z+.gpw (mode='all')