User:   madkru@i008.nifl.fysik.dtu.dk
Date:   Fri Mar 26 04:59:36 2021
Arch:   x86_64
Pid:    26969
Python: 3.7.4
gpaw:   /home/niflheim/madkru/venv_folder/gpaw/gpaw (d224efde0f)
_gpaw:  /home/niflheim/madkru/venv_folder/gpaw/build/lib.linux-x86_64-ivybridge-3.7/
        _gpaw.cpython-37m-x86_64-linux-gnu.so (4fd39e8b1e)
ase:    /home/niflheim/madkru/venv_folder/ase/ase (version 3.21.0b1-4d5a73cb29)
numpy:  /home/niflheim/madkru/venv_folder/lib/python3.7/site-packages/numpy (version 1.19.4)
scipy:  /home/niflheim/madkru/venv_folder/lib/python3.7/site-packages/scipy (version 1.5.4)
units:  Angstrom and eV
cores: 64
OMP_NUM_THREADS: 1

Input parameters:
  convergence: {bands: occupied,
                density: 0.0001,
                eigenstates: 4e-08,
                energy: 0.0005,
                forces: 1e-06}
  kpts: [6 6 4]
  mode: {ecut: 600.0,
         gammacentered: False,
         name: pw}
  occupations: {fixmagmom: False,
                name: fermi-dirac,
                width: 0.001}
  symmetry: {point_group: False,
             time_reversal: False}

System changes: positions, numbers, cell, pbc, initial_charges, initial_magmoms

Initialize ...

O-setup:
  name: Oxygen
  id: 9b9d51c344dea68c822856295a461509
  Z: 8.0
  valence: 6
  core: 2
  charge: 0.0
  file: /home/modules/software/GPAW-setups/0.9.20000/O.LDA.gz
  compensation charges: gauss, rc=0.21, lmax=2
  cutoffs: 1.17(filt), 0.83(core),
  valence states:
                energy  radius
    2s(2.00)   -23.752   0.688
    2p(4.00)    -9.195   0.598
    *s           3.459   0.688
    *p          18.016   0.598
    *d           0.000   0.619

  Using partial waves for O as LCAO basis

Mn-setup:
  name: Manganese
  id: 0d715a8018be061a6e9ea6f2d364ac92
  Z: 25.0
  valence: 15
  core: 10
  charge: 0.0
  file: /home/modules/software/GPAW-setups/0.9.20000/Mn.LDA.gz
  compensation charges: gauss, rc=0.38, lmax=2
  cutoffs: 2.14(filt), 0.86(core),
  valence states:
                energy  radius
    3s(2.00)   -85.387   1.275
    4s(2.00)    -5.282   1.275
    3p(6.00)   -54.493   1.281
    4p(0.00)    -1.471   1.281
    3d(5.00)    -7.009   1.138
    *d          20.203   1.138

[...]

P-setup:
  name: Phosphorus
  id: a5561c299094968922a179ab894d2e2d
  Z: 15.0
  valence: 5
  core: 10
  charge: 0.0
  file: /home/modules/software/GPAW-setups/0.9.20000/P.LDA.gz
  compensation charges: gauss, rc=0.30, lmax=2
  cutoffs: 1.69(filt), 1.81(core),
  valence states:
                energy  radius
    3s(2.00)   -14.015   0.953
    3p(3.00)    -5.596   0.953
    *s          13.197   0.953
    *p          21.615   0.953
    *d           0.000   0.953

[...]

Li-setup:
  name: Lithium
  id: b73562207f97a71b6967473b66fe8b65
  Z: 3.0
  valence: 1
  core: 2
  charge: 0.0
  file: /home/modules/software/GPAW-setups/0.9.20000/Li.LDA.gz
  compensation charges: gauss, rc=0.33, lmax=2
  cutoffs: 1.91(filt), 2.55(core),
  valence states:
                energy  radius
    2s(1.00)    -2.874   1.058
    2p(0.00)    -1.126   1.058
    *s          24.338   1.058

  Using partial waves for Li as LCAO basis

Reference energy: -196157.275402

Spin-polarized calculation.
Magnetic moment: 0.000000

Convergence criteria:
  Maximum total energy change: 0.0005 eV / electron
  Maximum integral of absolute density change: 0.0001 electrons
  Maximum integral of absolute eigenstate change: 4e-08 eV^2
  Maximum change in atomic force: 1e-06 eV / Ang
  Maximum number of iterations: 333

Symmetries present (total): 1

  ( 1  0  0)
  ( 0  1  0)
  ( 0  0  1)

144 k-points: 6 x 6 x 4 Monkhorst-Pack grid
144 k-points in the irreducible part of the Brillouin zone
       k-points in crystal coordinates                weights
   0:    -0.41666667   -0.41666667   -0.37500000          1/144
   1:    -0.41666667   -0.41666667   -0.12500000          1/144
   2:    -0.41666667   -0.41666667    0.12500000          1/144
   3:    -0.41666667   -0.41666667    0.37500000          1/144
   4:    -0.41666667   -0.25000000   -0.37500000          1/144
   5:    -0.41666667   -0.25000000   -0.12500000          1/144
   6:    -0.41666667   -0.25000000    0.12500000          1/144
   7:    -0.41666667   -0.25000000    0.37500000          1/144
   8:    -0.41666667   -0.08333333   -0.37500000          1/144
   9:    -0.41666667   -0.08333333   -0.12500000          1/144
          ...
 143:     0.41666667    0.41666667    0.37500000          1/144

Wave functions: Plane wave expansion
  Cutoff energy: 600.000 eV
  Number of coefficients (min, max): 9132, 9161
  Pulay-stress correction: 0.000000 eV/Ang^3 (de/decut=0.000000)
  Using FFTW library
  ScaLapack parameters: grid=1x1, blocksize=None
  Wavefunction extrapolation:
    Improved wavefunction reuse through dual PAW basis

  Fermi-Dirac: width=0.0010 eV

Eigensolver
   Davidson(niter=2, smin=None, normalize=True)

Densities:
  Coarse grid: 60*35*27 grid
  Fine grid: 120*70*54 grid
  Total Charge: 0.000000

Density mixing:
  Method: difference
  Backend: pulay
  Linear mixing parameter: 0.05
  Mixing with 5 old densities
  Damping of long wave oscillations: 50

Hamiltonian:
  XC and Coulomb potentials evaluated on a 120*70*54 grid
  Using the LDA Exchange-Correlation functional

Total number of cores used: 64
Parallelization over k-points: 16
Domain decomposition: 2 x 2 x 1

Number of atoms: 28
Number of atomic orbitals: 148
Number of bands in calculation: 112
Number of valence electrons: 180
Bands to converge: occupied

... initialized

Initializing position-dependent things.

Density initialized from atomic densities
Creating initial wave functions:
  112 bands from LCAO basis set

               O     O  P  O
            PO           OMn     O
                  O          MO
            O        Li O
             Mn  Mn          OP
         O       O Li O
         Li     O P         O
       Li

Positions:
   0 O     -1.280122   -2.495595   -1.112331    ( 0.0000,  0.0000,  0.0000)
   1 O     -3.023238    2.918858    1.191723    ( 0.0000,  0.0000,  0.0000)
   2 O      1.997451    0.467212    1.441442    ( 0.0000,  0.0000,  0.0000)
   3 O      3.740343   -0.043905   -0.862614    ( 0.0000,  0.0000,  0.0000)
   4 O      1.997419    2.918835    1.441465    ( 0.0000,  0.0000,  0.0000)
   5 O      3.740372   -2.495531   -0.862587    ( 0.0000,  0.0000,  0.0000)
   6 O     -1.280154   -0.043891   -1.112309    ( 0.0000,  0.0000,  0.0000)
   7 O     -3.023210    0.467136    1.191750    ( 0.0000,  0.0000,  0.0000)
   8 O     -4.147405   -1.269737   -0.856207    ( 0.0000,  0.0000,  0.0000)
   9 O     -0.155894    1.692986    1.447725    ( 0.0000,  0.0000,  0.0000)
  10 O      4.864578    1.693016    1.185324    ( 0.0000,  0.0000,  0.0000)
  11 O      0.873163   -1.269706   -1.118625    ( 0.0000,  0.0000,  0.0000)
  12 Mn    -2.437108   -1.269902    0.302197    ( 0.0000,  0.0000,  1.0000)
  13 Mn    -1.866187    1.693156   -2.001927    ( 0.0000,  0.0000, -1.0000)
  14 Mn     3.154299    1.693181    0.026917    ( 0.0000,  0.0000, -1.0000)
  15 Mn     2.583444   -1.269877    2.331074    ( 0.0000,  0.0000,  1.0000)
  16 P     -0.543052   -1.269720   -1.734187    ( 0.0000,  0.0000,  0.0000)
  17 P     -3.760282    1.692974    0.569859    ( 0.0000,  0.0000,  0.0000)
  18 P      1.260300    1.693000    2.063344    ( 0.0000,  0.0000,  0.0000)
  19 P      4.477470   -1.269695   -0.240696    ( 0.0000,  0.0000,  0.0000)
  20 O     -0.544413   -1.269738    1.348523    ( 0.0000,  0.0000,  0.0000)
  21 O     -3.758895    1.692992   -0.955558    ( 0.0000,  0.0000,  0.0000)
  22 O      1.261690    1.693018   -1.019367    ( 0.0000,  0.0000,  0.0000)
  23 O      4.476045   -1.269713    1.284716    ( 0.0000,  0.0000,  0.0000)
  24 Li    -4.662027   -2.751322   -2.129440    ( 0.0000,  0.0000,  0.0000)
  25 Li     0.358703   -2.751277    0.164614    ( 0.0000,  0.0000,  0.0000)
  26 Li    -4.662011    0.211617   -2.139439    ( 0.0000,  0.0000,  0.0000)
  27 Li     0.358720    0.211628    0.164615    ( 0.0000,  0.0000,  0.0000)

Unit cell:
           periodic     x           y           z      points  spacing
  1. axis:    yes   10.041096    0.000054   -0.000022    60     0.1674
  2. axis:    yes    0.000032    5.925857    0.000001    35     0.1693
  3. axis:    yes   -0.000010    0.000001    4.608134    27     0.1707

  Lengths:  10.041096   5.925857   4.608134
  Angles:   89.999974  90.000250  89.999381

Effective grid spacing dv^(1/3) = 0.1691

                     log10-error:           total        iterations:
           time      wfs    density  force  energy       poisson  magmom
iter:   1  05:01:12                       -233.730198             +0.0000
iter:   2  05:01:32  -0.47  -0.95         -231.549941             +0.0026
iter:   3  05:01:51  -0.61  -1.00         -220.809927             +0.0027
iter:   4  05:02:11  -1.20  -1.31         -221.071029             +0.3805
iter:   5  05:02:31  -2.14  -1.39         -222.705898             +0.2089
iter:   6  05:02:51  -2.25  -1.38         -223.547449             +0.2216
iter:   7  05:03:10  -2.15  -1.54         -223.859795             -0.0130
iter:   8  05:03:30  -2.55  -1.72         -225.615160             -0.7557
iter:   9  05:03:50  -2.34  -1.93         -226.413567             +0.0382
iter:  10  05:04:10  -2.10  -2.04         -226.329838             +0.0139
iter:  11  05:04:29  -2.97  -2.19         -226.329705             +0.0071
iter:  12  05:04:49  -2.32  -2.21         -226.234611             -0.0022
iter:  13  05:05:09  -3.47  -2.62         -226.226902             +0.0013
iter:  14  05:05:28  -2.71  -2.74         -226.212986             +0.0015
iter:  15  05:05:48  -3.59  -2.83         -226.183865             +0.0004
iter:  16  05:06:08  -3.83  -3.14         -226.177064             +0.0001
iter:  17  05:06:28  -4.85  -3.28         -226.177791             +0.0000
iter:  18  05:06:47  -4.40  -3.35         -226.176161             +0.0000
iter:  19  05:07:07  -5.50  -3.44         -226.175946             +0.0000
iter:  20  05:07:27  -4.84  -3.52         -226.176349             +0.0000
iter:  21  05:07:46  -5.43  -3.55         -226.175790             +0.0000
iter:  22  05:08:06  -5.88  -3.81         -226.175541             +0.0000
iter:  23  05:08:26  -5.68  -3.90         -226.175306             +0.0000
iter:  24  05:08:46  -5.35  -3.99         -226.175258             +0.0000
iter:  25  05:09:05  -5.91  -4.17         -226.175210             +0.0000
iter:  26  05:09:25  -7.05  -4.44         -226.175215             -0.0000
iter:  27  05:09:45  -6.30  -4.48         -226.175222             -0.0000
iter:  28  05:10:05  -6.84  -4.48         -226.175214             -0.0000
iter:  29  05:10:24  -7.13  -4.77         -226.175211             -0.0000
iter:  30  05:10:49  -7.46  -4.85         -226.175211             -0.0000
iter:  31  05:11:08  -7.39  -4.86         -226.175210             -0.0000
iter:  32  05:11:33  -8.30  -5.26    -2.45-226.175210             -0.0000
iter:  33  05:11:57  -8.41  -5.35    -2.98-226.175210             -0.0000
iter:  34  05:12:21  -8.62  -5.39    -3.08-226.175210             +0.0000
iter:  35  05:12:46  -9.54  -5.82    -4.11-226.175210             -0.0000
iter:  36  05:13:10  -9.64  -5.85    -3.33-226.175210             -0.0000
iter:  37  05:13:35  -9.71  -5.89    -3.79-226.175210             -0.0000
iter:  38  05:13:59 -10.04  -6.29    -4.27-226.175210             -0.0000
iter:  39  05:14:23 -10.20  -6.31    -3.80-226.175210             -0.0000
iter:  40  05:14:48 -10.59  -6.48    -4.27-226.175210             -0.0000
iter:  41  05:15:12 -11.71  -6.64    -4.63-226.175210             -0.0000
iter:  42  05:15:36 -11.21  -6.81    -4.51-226.175210             -0.0000
iter:  43  05:16:01 -11.10  -6.67    -4.43-226.175210             -0.0000
iter:  44  05:16:25 -11.66  -7.12    -4.76-226.175210             -0.0000
iter:  45  05:16:50 -12.19  -6.96    -5.06-226.175210             -0.0000
iter:  46  05:17:14 -12.81  -7.58    -5.64-226.175210             -0.0000
iter:  47  05:17:38 -13.01  -7.77    -5.45-226.175210             -0.0000
iter:  48  05:18:03 -13.36  -7.59    -5.63-226.175210             -0.0000
iter:  49  05:18:27 -13.59  -8.13    -6.01-226.175210             -0.0000

Converged after 49 iterations.

Dipole moment: (18.326986, -2.307001, -4.518701) |e|*Ang

Total magnetic moment: (0.000000, 0.000000, -0.000000)
Local magnetic moments:
   0 O  ( 0.000000,  0.000000, -0.001806)
   1 O  ( 0.000000,  0.000000,  0.001804)
   2 O  ( 0.000000,  0.000000,  0.001810)
   3 O  ( 0.000000,  0.000000, -0.001803)
   4 O  ( 0.000000,  0.000000,  0.001807)
   5 O  ( 0.000000,  0.000000, -0.001809)
   6 O  ( 0.000000,  0.000000, -0.001813)
   7 O  ( 0.000000,  0.000000,  0.001819)
   8 O  ( 0.000000,  0.000000,  0.031053)
   9 O  ( 0.000000,  0.000000, -0.031100)
  10 O  ( 0.000000,  0.000000, -0.031140)
  11 O  ( 0.000000,  0.000000,  0.031093)
  12 Mn ( 0.000000,  0.000000,  4.395775)
  13 Mn ( 0.000000,  0.000000, -4.395752)
  14 Mn ( 0.000000,  0.000000, -4.395726)
  15 Mn ( 0.000000,  0.000000,  4.395783)
  16 P  ( 0.000000,  0.000000,  0.000866)
  17 P  ( 0.000000,  0.000000, -0.000863)
  18 P  ( 0.000000,  0.000000, -0.000871)
  19 P  ( 0.000000,  0.000000,  0.000872)
  20 O  ( 0.000000,  0.000000,  0.028423)
  21 O  ( 0.000000,  0.000000, -0.028397)
  22 O  ( 0.000000,  0.000000, -0.028414)
  23 O  ( 0.000000,  0.000000,  0.028438)
  24 Li ( 0.000000,  0.000000,  0.000012)
  25 Li ( 0.000000,  0.000000,  0.000000)
  26 Li ( 0.000000,  0.000000, -0.000002)
  27 Li ( 0.000000,  0.000000,  0.000000)

Energy contributions relative to reference atoms: (reference = -196157.275402)

Kinetic:       +277.625566
Potential:     -240.967737
External:        +0.000000
XC:            -264.721479
Entropy (-ST):   -0.000000
Local:           +1.888439
Free energy:   -226.175210
Extrapolated:  -226.175210

Spin contamination: 9.455315 electrons
Showing only first 2 kpts
                      Up                     Down
 Kpt  Band  Eigenvalues  Occupancy  Eigenvalues  Occupancy
  0    88      6.53049    0.00694      6.53049    0.00694
  0    89      6.56405    0.00694      6.56414    0.00694
  0    90      8.42668    0.00000      8.42683    0.00000
  0    91      8.44823    0.00000      8.44846    0.00000

  1    88      6.56897    0.00694      6.56890    0.00694
  1    89      6.59595    0.00694      6.59614    0.00694
  1    90      8.38312    0.00000      8.38305    0.00000
  1    91      8.40522    0.00000      8.40524    0.00000

Fermi level: 7.64667

Gap: 1.699 eV
Transition (v -> c):
  (s=1, k=94, n=89, [0.08, 0.42, 0.12]) -> (s=1, k=86, n=90, [0.08, 0.08, 0.12])
Writing to born-0.01-24z+.gpw (mode='all')