User:   madkru@g043.nifl.fysik.dtu.dk
Date:   Mon Mar 29 17:44:17 2021
Arch:   x86_64
Pid:    9629
Python: 3.8.6
gpaw:   /home/niflheim/madkru/venv_madkru/gpaw/gpaw (e6f0d78a31)
_gpaw:  /home/niflheim/madkru/venv_madkru/gpaw/build/lib.linux-x86_64-sandybridge-3.8/
        _gpaw.cpython-38-x86_64-linux-gnu.so (e6f0d78a31)
ase:    /home/niflheim/madkru/venv_madkru/ase/ase (version 3.22.0b1-4d5a73cb29)
numpy:  /home/modules/software/SciPy-bundle/2020.11-foss-2020b/lib/python3.8/site-packages/numpy (version 1.19.4)
scipy:  /home/modules/software/SciPy-bundle/2020.11-foss-2020b/lib/python3.8/site-packages/scipy (version 1.5.4)
units:  Angstrom and eV
cores: 64
OpenMP: False
OMP_NUM_THREADS: 1

Input parameters:
  convergence: {bands: occupied,
                density: 0.0001,
                eigenstates: 4e-08,
                energy: 0.0005,
                forces: 1e-06}
  kpts: [6 6 4]
  mode: {ecut: 600.0,
         gammacentered: False,
         name: pw}
  occupations: {fixmagmom: False,
                name: fermi-dirac,
                width: 0.001}
  symmetry: {point_group: False,
             time_reversal: False}

System changes: positions, numbers, cell, pbc, initial_charges, initial_magmoms

Initialize ...

O-setup:
  name: Oxygen
  id: 9b9d51c344dea68c822856295a461509
  Z: 8.0
  valence: 6
  core: 2
  charge: 0.0
  file: /home/modules/software/GPAW-setups/0.9.20000/O.LDA.gz
  compensation charges: gauss, rc=0.21, lmax=2
  cutoffs: 1.17(filt), 0.83(core),
  valence states:
                energy  radius
    2s(2.00)   -23.752   0.688
    2p(4.00)    -9.195   0.598
    *s           3.459   0.688
    *p          18.016   0.598
    *d           0.000   0.619

  Using partial waves for O as LCAO basis

Mn-setup:
  name: Manganese
  id: 0d715a8018be061a6e9ea6f2d364ac92
  Z: 25.0
  valence: 15
  core: 10
  charge: 0.0
  file: /home/modules/software/GPAW-setups/0.9.20000/Mn.LDA.gz
  compensation charges: gauss, rc=0.38, lmax=2
  cutoffs: 2.14(filt), 0.86(core),
  valence states:
                energy  radius
    3s(2.00)   -85.387   1.275
    4s(2.00)    -5.282   1.275
    3p(6.00)   -54.493   1.281
    4p(0.00)    -1.471   1.281
    3d(5.00)    -7.009   1.138
    *d          20.203   1.138

[...]

P-setup:
  name: Phosphorus
  id: a5561c299094968922a179ab894d2e2d
  Z: 15.0
  valence: 5
  core: 10
  charge: 0.0
  file: /home/modules/software/GPAW-setups/0.9.20000/P.LDA.gz
  compensation charges: gauss, rc=0.30, lmax=2
  cutoffs: 1.69(filt), 1.81(core),
  valence states:
                energy  radius
    3s(2.00)   -14.015   0.953
    3p(3.00)    -5.596   0.953
    *s          13.197   0.953
    *p          21.615   0.953
    *d           0.000   0.953

[...]

Li-setup:
  name: Lithium
  id: b73562207f97a71b6967473b66fe8b65
  Z: 3.0
  valence: 1
  core: 2
  charge: 0.0
  file: /home/modules/software/GPAW-setups/0.9.20000/Li.LDA.gz
  compensation charges: gauss, rc=0.33, lmax=2
  cutoffs: 1.91(filt), 2.55(core),
  valence states:
                energy  radius
    2s(1.00)    -2.874   1.058
    2p(0.00)    -1.126   1.058
    *s          24.338   1.058

  Using partial waves for Li as LCAO basis

Reference energy: -196157.275402

Spin-polarized calculation.
Magnetic moment: 0.000000

Convergence criteria:
  Maximum total energy change: 0.0005 eV / electron
  Maximum integral of absolute density change: 0.0001 electrons
  Maximum integral of absolute eigenstate change: 4e-08 eV^2
  Maximum change in atomic force: 1e-06 eV / Ang
  Maximum number of iterations: 333

Symmetries present (total): 1

  ( 1  0  0)
  ( 0  1  0)
  ( 0  0  1)

144 k-points: 6 x 6 x 4 Monkhorst-Pack grid
144 k-points in the irreducible part of the Brillouin zone
       k-points in crystal coordinates                weights
   0:    -0.41666667   -0.41666667   -0.37500000          1/144
   1:    -0.41666667   -0.41666667   -0.12500000          1/144
   2:    -0.41666667   -0.41666667    0.12500000          1/144
   3:    -0.41666667   -0.41666667    0.37500000          1/144
   4:    -0.41666667   -0.25000000   -0.37500000          1/144
   5:    -0.41666667   -0.25000000   -0.12500000          1/144
   6:    -0.41666667   -0.25000000    0.12500000          1/144
   7:    -0.41666667   -0.25000000    0.37500000          1/144
   8:    -0.41666667   -0.08333333   -0.37500000          1/144
   9:    -0.41666667   -0.08333333   -0.12500000          1/144
          ...
 143:     0.41666667    0.41666667    0.37500000          1/144

Wave functions: Plane wave expansion
  Cutoff energy: 600.000 eV
  Number of coefficients (min, max): 9132, 9161
  Pulay-stress correction: 0.000000 eV/Ang^3 (de/decut=0.000000)
  Using FFTW library
  ScaLapack parameters: grid=1x1, blocksize=None
  Wavefunction extrapolation:
    Improved wavefunction reuse through dual PAW basis

  Fermi-Dirac: width=0.0010 eV

Eigensolver
   Davidson(niter=2)

Densities:
  Coarse grid: 60*35*27 grid
  Fine grid: 120*70*54 grid
  Total Charge: 0.000000

Density mixing:
  Method: difference
  Backend: pulay
  Linear mixing parameter: 0.05
  Mixing with 5 old densities
  Damping of long wave oscillations: 50

Hamiltonian:
  XC and Coulomb potentials evaluated on a 120*70*54 grid
  Using the LDA Exchange-Correlation functional

Total number of cores used: 64
Parallelization over k-points: 16
Domain decomposition: 2 x 2 x 1

Number of atoms: 28
Number of atomic orbitals: 148
Number of bands in calculation: 112
Number of valence electrons: 180
Bands to converge: occupied

... initialized

Initializing position-dependent things.

Density initialized from atomic densities
Creating initial wave functions:
  112 bands from LCAO basis set

               O     O  P  O
            PO           OMn     O
                  O          MO
            O        Li O
             Mn  Mn          OP
         O       O Li O
         Li     O P         O
       Li

Positions:
   0 O     -1.280122   -2.495595   -1.112331    ( 0.0000,  0.0000,  0.0000)
   1 O     -3.023238    2.918858    1.191723    ( 0.0000,  0.0000,  0.0000)
   2 O      1.997451    0.467212    1.441442    ( 0.0000,  0.0000,  0.0000)
   3 O      3.740343   -0.043905   -0.862614    ( 0.0000,  0.0000,  0.0000)
   4 O      1.997419    2.918835    1.441465    ( 0.0000,  0.0000,  0.0000)
   5 O      3.740372   -2.495531   -0.862587    ( 0.0000,  0.0000,  0.0000)
   6 O     -1.280154   -0.043891   -1.112309    ( 0.0000,  0.0000,  0.0000)
   7 O     -3.023210    0.467136    1.191750    ( 0.0000,  0.0000,  0.0000)
   8 O     -4.147405   -1.269737   -0.856207    ( 0.0000,  0.0000,  0.0000)
   9 O     -0.155894    1.692986    1.447725    ( 0.0000,  0.0000,  0.0000)
  10 O      4.864578    1.693016    1.185324    ( 0.0000,  0.0000,  0.0000)
  11 O      0.873163   -1.269706   -1.118625    ( 0.0000,  0.0000,  0.0000)
  12 Mn    -2.437108   -1.269902    0.302197    ( 0.0000,  0.0000,  1.0000)
  13 Mn    -1.866187    1.693156   -2.001927    ( 0.0000,  0.0000, -1.0000)
  14 Mn     3.154299    1.693181    0.026917    ( 0.0000,  0.0000, -1.0000)
  15 Mn     2.583444   -1.269877    2.331074    ( 0.0000,  0.0000,  1.0000)
  16 P     -0.543052   -1.269720   -1.734187    ( 0.0000,  0.0000,  0.0000)
  17 P     -3.760282    1.692974    0.569859    ( 0.0000,  0.0000,  0.0000)
  18 P      1.260300    1.693000    2.063344    ( 0.0000,  0.0000,  0.0000)
  19 P      4.477470   -1.269695   -0.240696    ( 0.0000,  0.0000,  0.0000)
  20 O     -0.544413   -1.269738    1.348523    ( 0.0000,  0.0000,  0.0000)
  21 O     -3.758895    1.692992   -0.955558    ( 0.0000,  0.0000,  0.0000)
  22 O      1.261690    1.693018   -1.019367    ( 0.0000,  0.0000,  0.0000)
  23 O      4.476045   -1.269713    1.284716    ( 0.0000,  0.0000,  0.0000)
  24 Li    -4.662027   -2.751322   -2.139440    ( 0.0000,  0.0000,  0.0000)
  25 Li     0.358703   -2.751277    0.154614    ( 0.0000,  0.0000,  0.0000)
  26 Li    -4.662011    0.211617   -2.139439    ( 0.0000,  0.0000,  0.0000)
  27 Li     0.358720    0.211628    0.164615    ( 0.0000,  0.0000,  0.0000)

Unit cell:
           periodic     x           y           z      points  spacing
  1. axis:    yes   10.041096    0.000054   -0.000022    60     0.1674
  2. axis:    yes    0.000032    5.925857    0.000001    35     0.1693
  3. axis:    yes   -0.000010    0.000001    4.608134    27     0.1707

  Lengths:  10.041096   5.925857   4.608134
  Angles:   89.999974  90.000250  89.999381

Effective grid spacing dv^(1/3) = 0.1691

                     log10-error:           total        iterations:
           time      wfs    density  force  energy       poisson  magmom
iter:   1  17:46:00                       -233.730190             +0.0000
iter:   2  17:46:20  -0.47  -0.95         -231.549942             +0.0026
iter:   3  17:46:40  -0.61  -1.00         -220.810021             +0.0027
iter:   4  17:47:00  -1.20  -1.31         -221.094572             +0.3949
iter:   5  17:47:20  -2.14  -1.39         -222.691653             +0.2210
iter:   6  17:47:40  -2.22  -1.38         -223.746425             +0.2053
iter:   7  17:48:00  -2.20  -1.53         -223.887469             -0.1853
iter:   8  17:48:20  -2.55  -1.68         -225.702872             -0.5756
iter:   9  17:48:40  -2.22  -1.92         -226.372009             -0.2477
iter:  10  17:49:00  -2.21  -2.05         -226.302700             -0.0935
iter:  11  17:49:20  -2.82  -2.21         -226.319949             -0.0246
iter:  12  17:49:39  -2.66  -2.25         -226.212692             +0.0133
iter:  13  17:49:59  -2.98  -2.61         -226.216537             -0.0036
iter:  14  17:50:19  -3.16  -2.84         -226.173789             +0.0093
iter:  15  17:50:39  -3.84  -3.11         -226.178573             +0.0012
iter:  16  17:50:59  -4.88  -3.29         -226.177258             -0.0000
iter:  17  17:51:19  -5.48  -3.33         -226.176372             -0.0001
iter:  18  17:51:39  -5.06  -3.37         -226.175462             -0.0000
iter:  19  17:51:59  -4.59  -3.41         -226.175838             -0.0000
iter:  20  17:52:19  -5.85  -3.49         -226.175474             -0.0000
iter:  21  17:52:39  -5.19  -3.55         -226.175362             +0.0000
iter:  22  17:52:58  -6.18  -3.66         -226.175341             +0.0000
iter:  23  17:53:18  -5.98  -3.71         -226.175291             -0.0000
iter:  24  17:53:38  -6.82  -3.76         -226.175278             +0.0000
iter:  25  17:53:58  -5.43  -3.79         -226.175452             +0.0000
iter:  26  17:54:18  -6.38  -3.99         -226.175404             +0.0000
iter:  27  17:54:38  -6.47  -4.03         -226.175307             -0.0000
iter:  28  17:54:58  -6.26  -4.10         -226.175235             -0.0000
iter:  29  17:55:18  -6.23  -4.16         -226.175214             -0.0000
iter:  30  17:55:38  -6.93  -4.20         -226.175215             -0.0000
iter:  31  17:55:58  -7.19  -4.48         -226.175213             +0.0000
iter:  32  17:56:22  -7.84  -5.03         -226.175215             -0.0000
iter:  33  17:56:47  -8.13  -5.11    -3.33-226.175215             -0.0000
iter:  34  17:57:12  -8.17  -5.17    -3.09-226.175215             -0.0000
iter:  35  17:57:37  -8.64  -5.34    -3.16-226.175215             +0.0000
iter:  36  17:58:02  -9.16  -5.46    -3.71-226.175215             +0.0000
iter:  37  17:58:27  -9.28  -5.52    -3.77-226.175215             +0.0000
iter:  38  17:58:52  -9.87  -5.56    -3.74-226.175215             +0.0000
iter:  39  17:59:16  -9.92  -5.63    -3.66-226.175215             +0.0000
iter:  40  17:59:41 -10.38  -5.69    -3.98-226.175215             +0.0000
iter:  41  18:00:06  -9.78  -5.77    -3.57-226.175215             +0.0000
iter:  42  18:00:31 -10.62  -6.02    -4.33-226.175215             +0.0000
iter:  43  18:00:56  -9.68  -6.07    -3.64-226.175215             +0.0000
iter:  44  18:01:21 -10.04  -6.17    -4.10-226.175215             +0.0000
iter:  45  18:01:46 -10.47  -6.24    -4.07-226.175215             +0.0000
iter:  46  18:02:10 -10.54  -6.32    -4.07-226.175215             +0.0000
iter:  47  18:02:35 -10.47  -6.46    -4.05-226.175215             +0.0000
iter:  48  18:03:00 -11.00  -6.72    -4.57-226.175215             +0.0000
iter:  49  18:03:26 -11.94  -7.02    -5.09-226.175215             +0.0000
iter:  50  18:03:51 -11.89  -7.07    -4.79-226.175215             +0.0000
iter:  51  18:04:15 -12.34  -7.14    -5.17-226.175215             +0.0000
iter:  52  18:04:40 -13.03  -7.41    -5.45-226.175215             +0.0000
iter:  53  18:05:05 -12.88  -7.49    -4.86-226.175215             +0.0000
iter:  54  18:05:30 -13.02  -7.65    -5.45-226.175215             +0.0000
iter:  55  18:05:55 -14.00  -8.01    -5.98-226.175215             +0.0000
iter:  56  18:06:20 -14.23  -8.07    -6.14-226.175215             +0.0000

Converged after 56 iterations.

Dipole moment: (18.326273, -2.307000, -4.474928) |e|*Ang

Total magnetic moment: (0.000000, 0.000000, 0.000000)
Local magnetic moments:
   0 O  ( 0.000000,  0.000000, -0.001813)
   1 O  ( 0.000000,  0.000000,  0.001811)
   2 O  ( 0.000000,  0.000000,  0.001816)
   3 O  ( 0.000000,  0.000000, -0.001809)
   4 O  ( 0.000000,  0.000000,  0.001800)
   5 O  ( 0.000000,  0.000000, -0.001802)
   6 O  ( 0.000000,  0.000000, -0.001808)
   7 O  ( 0.000000,  0.000000,  0.001814)
   8 O  ( 0.000000,  0.000000,  0.031095)
   9 O  ( 0.000000,  0.000000, -0.031142)
  10 O  ( 0.000000,  0.000000, -0.031099)
  11 O  ( 0.000000,  0.000000,  0.031051)
  12 Mn ( 0.000000,  0.000000,  4.395796)
  13 Mn ( 0.000000,  0.000000, -4.395772)
  14 Mn ( 0.000000,  0.000000, -4.395706)
  15 Mn ( 0.000000,  0.000000,  4.395763)
  16 P  ( 0.000000,  0.000000,  0.000867)
  17 P  ( 0.000000,  0.000000, -0.000864)
  18 P  ( 0.000000,  0.000000, -0.000870)
  19 P  ( 0.000000,  0.000000,  0.000870)
  20 O  ( 0.000000,  0.000000,  0.028436)
  21 O  ( 0.000000,  0.000000, -0.028410)
  22 O  ( 0.000000,  0.000000, -0.028401)
  23 O  ( 0.000000,  0.000000,  0.028425)
  24 Li ( 0.000000,  0.000000,  0.000000)
  25 Li ( 0.000000,  0.000000,  0.000012)
  26 Li ( 0.000000,  0.000000, -0.000000)
  27 Li ( 0.000000,  0.000000, -0.000002)

Energy contributions relative to reference atoms: (reference = -196157.275402)

Kinetic:       +277.625552
Potential:     -240.967729
External:        +0.000000
XC:            -264.721476
Entropy (-ST):   -0.000000
Local:           +1.888438
Free energy:   -226.175215
Extrapolated:  -226.175215

Spin contamination: 9.455315 electrons
Showing only first 2 kpts
                      Up                     Down
 Kpt  Band  Eigenvalues  Occupancy  Eigenvalues  Occupancy
  0    88      6.53050    1.00000      6.53049    1.00000
  0    89      6.56404    1.00000      6.56413    1.00000
  0    90      8.42667    0.00000      8.42684    0.00000
  0    91      8.44823    0.00000      8.44847    0.00000

  1    88      6.56892    1.00000      6.56896    1.00000
  1    89      6.59601    1.00000      6.59607    1.00000
  1    90      8.38311    0.00000      8.38306    0.00000
  1    91      8.40523    0.00000      8.40524    0.00000

Fermi level: 7.62106

Gap: 1.699 eV
Transition (v -> c):
  (s=1, k=50, n=89, [-0.08, -0.42, 0.12]) -> (s=1, k=61, n=90, [-0.08, 0.08, -0.12])
Writing to born-0.01-25z-.gpw (mode='all')