User:   madkru@i013.nifl.fysik.dtu.dk
Date:   Mon Mar 22 15:27:41 2021
Arch:   x86_64
Pid:    27943
Python: 3.7.4
gpaw:   /home/niflheim/madkru/venv_folder/gpaw/gpaw (d0d1ca1c71)
_gpaw:  /home/niflheim/madkru/venv_folder/gpaw/build/lib.linux-x86_64-ivybridge-3.7/
        _gpaw.cpython-37m-x86_64-linux-gnu.so (4fd39e8b1e)
ase:    /home/niflheim/madkru/venv_folder/ase/ase (version 3.21.0b1-7e6c206a91)
numpy:  /home/niflheim/madkru/venv_folder/lib/python3.7/site-packages/numpy (version 1.19.4)
scipy:  /home/niflheim/madkru/venv_folder/lib/python3.7/site-packages/scipy (version 1.5.4)
units:  Angstrom and eV
cores: 32
OMP_NUM_THREADS: 1

Input parameters:
  convergence: {bands: occupied,
                density: 0.0001,
                eigenstates: 4e-08,
                energy: 0.0005,
                forces: 1e-06}
  kpts: [6 6 4]
  mode: {ecut: 600.0,
         gammacentered: False,
         name: pw}
  occupations: {fixmagmom: False,
                name: fermi-dirac,
                width: 0.001}
  symmetry: {point_group: False,
             time_reversal: False}

System changes: positions, numbers, cell, pbc, initial_charges, initial_magmoms

Initialize ...

O-setup:
  name: Oxygen
  id: 9b9d51c344dea68c822856295a461509
  Z: 8.0
  valence: 6
  core: 2
  charge: 0.0
  file: /home/modules/software/GPAW-setups/0.9.20000/O.LDA.gz
  compensation charges: gauss, rc=0.21, lmax=2
  cutoffs: 1.17(filt), 0.83(core),
  valence states:
                energy  radius
    2s(2.00)   -23.752   0.688
    2p(4.00)    -9.195   0.598
    *s           3.459   0.688
    *p          18.016   0.598
    *d           0.000   0.619

  Using partial waves for O as LCAO basis

Mn-setup:
  name: Manganese
  id: 0d715a8018be061a6e9ea6f2d364ac92
  Z: 25.0
  valence: 15
  core: 10
  charge: 0.0
  file: /home/modules/software/GPAW-setups/0.9.20000/Mn.LDA.gz
  compensation charges: gauss, rc=0.38, lmax=2
  cutoffs: 2.14(filt), 0.86(core),
  valence states:
                energy  radius
    3s(2.00)   -85.387   1.275
    4s(2.00)    -5.282   1.275
    3p(6.00)   -54.493   1.281
    4p(0.00)    -1.471   1.281
    3d(5.00)    -7.009   1.138
    *d          20.203   1.138

[...]

P-setup:
  name: Phosphorus
  id: a5561c299094968922a179ab894d2e2d
  Z: 15.0
  valence: 5
  core: 10
  charge: 0.0
  file: /home/modules/software/GPAW-setups/0.9.20000/P.LDA.gz
  compensation charges: gauss, rc=0.30, lmax=2
  cutoffs: 1.69(filt), 1.81(core),
  valence states:
                energy  radius
    3s(2.00)   -14.015   0.953
    3p(3.00)    -5.596   0.953
    *s          13.197   0.953
    *p          21.615   0.953
    *d           0.000   0.953

[...]

Li-setup:
  name: Lithium
  id: b73562207f97a71b6967473b66fe8b65
  Z: 3.0
  valence: 1
  core: 2
  charge: 0.0
  file: /home/modules/software/GPAW-setups/0.9.20000/Li.LDA.gz
  compensation charges: gauss, rc=0.33, lmax=2
  cutoffs: 1.91(filt), 2.55(core),
  valence states:
                energy  radius
    2s(1.00)    -2.874   1.058
    2p(0.00)    -1.126   1.058
    *s          24.338   1.058

  Using partial waves for Li as LCAO basis

Reference energy: -196157.275402

Spin-polarized calculation.
Magnetic moment: 0.000000

Convergence criteria:
  Maximum total energy change: 0.0005 eV / electron
  Maximum integral of absolute density change: 0.0001 electrons
  Maximum integral of absolute eigenstate change: 4e-08 eV^2
  Maximum change in atomic force: 1e-06 eV / Ang
  Maximum number of iterations: 333

Symmetries present (total): 1

  ( 1  0  0)
  ( 0  1  0)
  ( 0  0  1)

144 k-points: 6 x 6 x 4 Monkhorst-Pack grid
144 k-points in the irreducible part of the Brillouin zone
       k-points in crystal coordinates                weights
   0:    -0.41666667   -0.41666667   -0.37500000          1/144
   1:    -0.41666667   -0.41666667   -0.12500000          1/144
   2:    -0.41666667   -0.41666667    0.12500000          1/144
   3:    -0.41666667   -0.41666667    0.37500000          1/144
   4:    -0.41666667   -0.25000000   -0.37500000          1/144
   5:    -0.41666667   -0.25000000   -0.12500000          1/144
   6:    -0.41666667   -0.25000000    0.12500000          1/144
   7:    -0.41666667   -0.25000000    0.37500000          1/144
   8:    -0.41666667   -0.08333333   -0.37500000          1/144
   9:    -0.41666667   -0.08333333   -0.12500000          1/144
          ...
 143:     0.41666667    0.41666667    0.37500000          1/144

Wave functions: Plane wave expansion
  Cutoff energy: 600.000 eV
  Number of coefficients (min, max): 9132, 9161
  Pulay-stress correction: 0.000000 eV/Ang^3 (de/decut=0.000000)
  Using FFTW library
  ScaLapack parameters: grid=1x1, blocksize=None
  Wavefunction extrapolation:
    Improved wavefunction reuse through dual PAW basis

  Fermi-Dirac: width=0.0010 eV

Eigensolver
   Davidson(niter=2, smin=None, normalize=True)

Densities:
  Coarse grid: 60*35*27 grid
  Fine grid: 120*70*54 grid
  Total Charge: 0.000000

Density mixing:
  Method: difference
  Backend: pulay
  Linear mixing parameter: 0.05
  Mixing with 5 old densities
  Damping of long wave oscillations: 50

Hamiltonian:
  XC and Coulomb potentials evaluated on a 120*70*54 grid
  Using the LDA Exchange-Correlation functional

Total number of cores used: 32
Parallelization over k-points: 16
Domain decomposition: 2 x 1 x 1

Number of atoms: 28
Number of atomic orbitals: 148
Number of bands in calculation: 112
Number of valence electrons: 180
Bands to converge: occupied

... initialized

Initializing position-dependent things.

Density initialized from atomic densities
Creating initial wave functions:
  112 bands from LCAO basis set

               O     O  P  O
            PO           OMn     O
                  O          MO
            O        Li O
             Mn  Mn          OP
         O       O Li O
         Li     O P         O
       Li

Positions:
   0 O     -1.280122   -2.495595   -1.112331    ( 0.0000,  0.0000,  0.0000)
   1 O     -3.023238    2.918858    1.191723    ( 0.0000,  0.0000,  0.0000)
   2 O      1.997451    0.467212    1.441442    ( 0.0000,  0.0000,  0.0000)
   3 O      3.740343   -0.043905   -0.862614    ( 0.0000,  0.0000,  0.0000)
   4 O      1.997419    2.918835    1.441465    ( 0.0000,  0.0000,  0.0000)
   5 O      3.740372   -2.495531   -0.862587    ( 0.0000,  0.0000,  0.0000)
   6 O     -1.280154   -0.043891   -1.112309    ( 0.0000,  0.0000,  0.0000)
   7 O     -3.023210    0.457136    1.191750    ( 0.0000,  0.0000,  0.0000)
   8 O     -4.147405   -1.269737   -0.856207    ( 0.0000,  0.0000,  0.0000)
   9 O     -0.155894    1.692986    1.447725    ( 0.0000,  0.0000,  0.0000)
  10 O      4.864578    1.693016    1.185324    ( 0.0000,  0.0000,  0.0000)
  11 O      0.873163   -1.269706   -1.118625    ( 0.0000,  0.0000,  0.0000)
  12 Mn    -2.437108   -1.269902    0.302197    ( 0.0000,  0.0000,  1.0000)
  13 Mn    -1.866187    1.693156   -2.001927    ( 0.0000,  0.0000, -1.0000)
  14 Mn     3.154299    1.693181    0.026917    ( 0.0000,  0.0000, -1.0000)
  15 Mn     2.583444   -1.269877    2.331074    ( 0.0000,  0.0000,  1.0000)
  16 P     -0.543052   -1.269720   -1.734187    ( 0.0000,  0.0000,  0.0000)
  17 P     -3.760282    1.692974    0.569859    ( 0.0000,  0.0000,  0.0000)
  18 P      1.260300    1.693000    2.063344    ( 0.0000,  0.0000,  0.0000)
  19 P      4.477470   -1.269695   -0.240696    ( 0.0000,  0.0000,  0.0000)
  20 O     -0.544413   -1.269738    1.348523    ( 0.0000,  0.0000,  0.0000)
  21 O     -3.758895    1.692992   -0.955558    ( 0.0000,  0.0000,  0.0000)
  22 O      1.261690    1.693018   -1.019367    ( 0.0000,  0.0000,  0.0000)
  23 O      4.476045   -1.269713    1.284716    ( 0.0000,  0.0000,  0.0000)
  24 Li    -4.662027   -2.751322   -2.139440    ( 0.0000,  0.0000,  0.0000)
  25 Li     0.358703   -2.751277    0.164614    ( 0.0000,  0.0000,  0.0000)
  26 Li    -4.662011    0.211617   -2.139439    ( 0.0000,  0.0000,  0.0000)
  27 Li     0.358720    0.211628    0.164615    ( 0.0000,  0.0000,  0.0000)

Unit cell:
           periodic     x           y           z      points  spacing
  1. axis:    yes   10.041096    0.000054   -0.000022    60     0.1674
  2. axis:    yes    0.000032    5.925857    0.000001    35     0.1693
  3. axis:    yes   -0.000010    0.000001    4.608134    27     0.1707

  Lengths:  10.041096   5.925857   4.608134
  Angles:   89.999974  90.000250  89.999381

Effective grid spacing dv^(1/3) = 0.1691

                     log10-error:           total        iterations:
           time      wfs    density  force  energy       poisson  magmom
iter:   1  15:30:49                       -233.734948             +0.0000
iter:   2  15:31:25  -0.47  -0.95         -231.549781             +0.0000
iter:   3  15:32:01  -0.60  -1.00         -220.834784             +0.0000
iter:   4  15:32:38  -1.20  -1.30         -221.503398             +0.3999
iter:   5  15:33:14  -2.13  -1.38         -222.372279             +0.2295
iter:   6  15:33:51  -2.23  -1.39         -224.404621             +0.0156
iter:   7  15:34:27  -2.16  -1.50         -224.550676             -0.7044
iter:   8  15:35:03  -2.43  -1.62         -225.804093             -0.9750
iter:   9  15:35:39  -2.41  -1.89         -226.445813             -0.3918
iter:  10  15:36:16  -2.19  -2.11         -226.252041             -0.1133
iter:  11  15:36:52  -2.87  -2.28         -226.260978             -0.0604
iter:  12  15:37:28  -2.58  -2.35         -226.210485             +0.0251
iter:  13  15:38:04  -3.32  -2.79         -226.184693             -0.0090
iter:  14  15:38:41  -3.28  -2.90         -226.197774             -0.0037
iter:  15  15:39:17  -3.23  -2.84         -226.175868             -0.0018
iter:  16  15:39:53  -4.15  -3.25         -226.176263             -0.0009
iter:  17  15:40:29  -4.70  -3.26         -226.174560             -0.0001
iter:  18  15:41:06  -4.28  -3.46         -226.174538             -0.0001
iter:  19  15:41:42  -5.19  -3.71         -226.173731             -0.0000
iter:  20  15:42:18  -5.38  -3.82         -226.173799             -0.0001
iter:  21  15:42:55  -5.74  -3.91         -226.173921             -0.0000
iter:  22  15:43:31  -5.99  -4.01         -226.173989             -0.0000
iter:  23  15:44:07  -5.66  -4.04         -226.173880             -0.0000
iter:  24  15:44:44  -6.69  -4.41         -226.173875             -0.0000
iter:  25  15:45:29  -7.52  -4.61         -226.173874             -0.0000
iter:  26  15:46:15  -7.81  -4.69    -2.91-226.173873             +0.0000
iter:  27  15:47:00  -7.95  -4.74    -2.77-226.173873             +0.0000
iter:  28  15:47:45  -7.71  -4.85    -2.76-226.173872             +0.0000
iter:  29  15:48:31  -8.87  -4.89    -3.33-226.173872             +0.0000
iter:  30  15:49:16  -7.87  -4.92    -2.49-226.173872             -0.0000
iter:  31  15:50:01  -7.83  -5.16    -2.77-226.173872             +0.0000
iter:  32  15:50:47  -7.79  -5.21    -2.77-226.173872             -0.0000
iter:  33  15:51:32  -8.34  -5.33    -2.98-226.173872             +0.0000
iter:  34  15:52:18  -9.17  -5.60    -3.96-226.173872             +0.0000
iter:  35  15:53:03  -9.24  -5.65    -3.41-226.173872             +0.0000
iter:  36  15:53:49  -9.58  -5.72    -3.64-226.173872             +0.0000
iter:  37  15:54:34 -10.05  -5.79    -3.70-226.173872             +0.0000
iter:  38  15:55:19  -9.61  -5.89    -3.61-226.173872             +0.0000
iter:  39  15:56:05 -10.40  -5.94    -3.92-226.173872             +0.0000
iter:  40  15:56:50 -10.44  -5.98    -3.67-226.173872             +0.0000
iter:  41  15:57:36 -10.75  -6.08    -4.15-226.173872             +0.0000
iter:  42  15:58:21 -10.34  -6.12    -3.90-226.173872             +0.0000
iter:  43  15:59:07 -11.29  -6.63    -4.23-226.173872             +0.0000
iter:  44  15:59:52 -11.94  -6.70    -4.99-226.173872             +0.0000
iter:  45  16:00:38 -11.82  -6.72    -4.40-226.173872             +0.0000
iter:  46  16:01:23 -11.80  -6.87    -4.94-226.173872             +0.0000
iter:  47  16:02:09 -12.49  -6.93    -4.79-226.173872             +0.0000
iter:  48  16:02:54 -13.10  -7.02    -5.12-226.173872             +0.0000
iter:  49  16:03:39 -12.37  -7.06    -5.04-226.173872             +0.0000
iter:  50  16:04:25 -13.23  -7.14    -5.24-226.173872             +0.0000
iter:  51  16:05:10 -12.63  -7.18    -5.23-226.173872             +0.0000
iter:  52  16:05:56 -13.80  -7.39    -5.59-226.173872             +0.0000
iter:  53  16:06:41 -13.26  -7.48    -5.30-226.173872             +0.0000
iter:  54  16:07:27 -13.16  -7.60    -5.23-226.173872             +0.0000
iter:  55  16:08:12 -13.45  -7.83    -5.71-226.173872             +0.0000
iter:  56  16:08:58 -13.94  -7.96    -6.09-226.173872             +0.0000

Converged after 56 iterations.

Dipole moment: (18.325918, -2.470852, -4.525491) |e|*Ang

Total magnetic moment: (0.000000, 0.000000, 0.000000)
Local magnetic moments:
   0 O  ( 0.000000,  0.000000, -0.002048)
   1 O  ( 0.000000,  0.000000,  0.001664)
   2 O  ( 0.000000,  0.000000,  0.001799)
   3 O  ( 0.000000,  0.000000, -0.001827)
   4 O  ( 0.000000,  0.000000,  0.001796)
   5 O  ( 0.000000,  0.000000, -0.001816)
   6 O  ( 0.000000,  0.000000, -0.001781)
   7 O  ( 0.000000,  0.000000,  0.002222)
   8 O  ( 0.000000,  0.000000,  0.031107)
   9 O  ( 0.000000,  0.000000, -0.031096)
  10 O  ( 0.000000,  0.000000, -0.030852)
  11 O  ( 0.000000,  0.000000,  0.031115)
  12 Mn ( 0.000000,  0.000000,  4.393887)
  13 Mn ( 0.000000,  0.000000, -4.395439)
  14 Mn ( 0.000000,  0.000000, -4.395603)
  15 Mn ( 0.000000,  0.000000,  4.395773)
  16 P  ( 0.000000,  0.000000,  0.000882)
  17 P  ( 0.000000,  0.000000, -0.000467)
  18 P  ( 0.000000,  0.000000, -0.000863)
  19 P  ( 0.000000,  0.000000,  0.000890)
  20 O  ( 0.000000,  0.000000,  0.028466)
  21 O  ( 0.000000,  0.000000, -0.028257)
  22 O  ( 0.000000,  0.000000, -0.028442)
  23 O  ( 0.000000,  0.000000,  0.028417)
  24 Li ( 0.000000,  0.000000,  0.000002)
  25 Li ( 0.000000,  0.000000,  0.000001)
  26 Li ( 0.000000,  0.000000,  0.000032)
  27 Li ( 0.000000,  0.000000,  0.000001)

Energy contributions relative to reference atoms: (reference = -196157.275402)

Kinetic:       +277.120528
Potential:     -240.576813
External:        +0.000000
XC:            -264.606988
Entropy (-ST):   -0.000000
Local:           +1.889401
Free energy:   -226.173872
Extrapolated:  -226.173872

Spin contamination: 9.454002 electrons
Showing only first 2 kpts
                      Up                     Down
 Kpt  Band  Eigenvalues  Occupancy  Eigenvalues  Occupancy
  0    88      6.53561    0.00694      6.52799    0.00694
  0    89      6.57194    0.00694      6.56166    0.00694
  0    90      8.42464    0.00000      8.43080    0.00000
  0    91      8.44603    0.00000      8.45253    0.00000

  1    88      6.57382    0.00694      6.56633    0.00694
  1    89      6.60416    0.00694      6.59349    0.00694
  1    90      8.38023    0.00000      8.38693    0.00000
  1    91      8.40182    0.00000      8.40936    0.00000

Fermi level: 7.75686

Gap: 1.689 eV
Transition (v -> c):
  (s=0, k=94, n=89, [0.08, 0.42, 0.12]) -> (s=0, k=85, n=90, [0.08, 0.08, -0.12])
Writing to born-0.01-7y-.gpw (mode='all')