User:   madkru@i008.nifl.fysik.dtu.dk
Date:   Wed Mar 24 21:46:15 2021
Arch:   x86_64
Pid:    26969
Python: 3.7.4
gpaw:   /home/niflheim/madkru/venv_folder/gpaw/gpaw (d224efde0f)
_gpaw:  /home/niflheim/madkru/venv_folder/gpaw/build/lib.linux-x86_64-ivybridge-3.7/
        _gpaw.cpython-37m-x86_64-linux-gnu.so (4fd39e8b1e)
ase:    /home/niflheim/madkru/venv_folder/ase/ase (version 3.21.0b1-4d5a73cb29)
numpy:  /home/niflheim/madkru/venv_folder/lib/python3.7/site-packages/numpy (version 1.19.4)
scipy:  /home/niflheim/madkru/venv_folder/lib/python3.7/site-packages/scipy (version 1.5.4)
units:  Angstrom and eV
cores: 64
OMP_NUM_THREADS: 1

Input parameters:
  convergence: {bands: occupied,
                density: 0.0001,
                eigenstates: 4e-08,
                energy: 0.0005,
                forces: 1e-06}
  kpts: [6 6 4]
  mode: {ecut: 600.0,
         gammacentered: False,
         name: pw}
  occupations: {fixmagmom: False,
                name: fermi-dirac,
                width: 0.001}
  symmetry: {point_group: False,
             time_reversal: False}

System changes: positions, numbers, cell, pbc, initial_charges, initial_magmoms

Initialize ...

O-setup:
  name: Oxygen
  id: 9b9d51c344dea68c822856295a461509
  Z: 8.0
  valence: 6
  core: 2
  charge: 0.0
  file: /home/modules/software/GPAW-setups/0.9.20000/O.LDA.gz
  compensation charges: gauss, rc=0.21, lmax=2
  cutoffs: 1.17(filt), 0.83(core),
  valence states:
                energy  radius
    2s(2.00)   -23.752   0.688
    2p(4.00)    -9.195   0.598
    *s           3.459   0.688
    *p          18.016   0.598
    *d           0.000   0.619

  Using partial waves for O as LCAO basis

Mn-setup:
  name: Manganese
  id: 0d715a8018be061a6e9ea6f2d364ac92
  Z: 25.0
  valence: 15
  core: 10
  charge: 0.0
  file: /home/modules/software/GPAW-setups/0.9.20000/Mn.LDA.gz
  compensation charges: gauss, rc=0.38, lmax=2
  cutoffs: 2.14(filt), 0.86(core),
  valence states:
                energy  radius
    3s(2.00)   -85.387   1.275
    4s(2.00)    -5.282   1.275
    3p(6.00)   -54.493   1.281
    4p(0.00)    -1.471   1.281
    3d(5.00)    -7.009   1.138
    *d          20.203   1.138

[...]

P-setup:
  name: Phosphorus
  id: a5561c299094968922a179ab894d2e2d
  Z: 15.0
  valence: 5
  core: 10
  charge: 0.0
  file: /home/modules/software/GPAW-setups/0.9.20000/P.LDA.gz
  compensation charges: gauss, rc=0.30, lmax=2
  cutoffs: 1.69(filt), 1.81(core),
  valence states:
                energy  radius
    3s(2.00)   -14.015   0.953
    3p(3.00)    -5.596   0.953
    *s          13.197   0.953
    *p          21.615   0.953
    *d           0.000   0.953

[...]

Li-setup:
  name: Lithium
  id: b73562207f97a71b6967473b66fe8b65
  Z: 3.0
  valence: 1
  core: 2
  charge: 0.0
  file: /home/modules/software/GPAW-setups/0.9.20000/Li.LDA.gz
  compensation charges: gauss, rc=0.33, lmax=2
  cutoffs: 1.91(filt), 2.55(core),
  valence states:
                energy  radius
    2s(1.00)    -2.874   1.058
    2p(0.00)    -1.126   1.058
    *s          24.338   1.058

  Using partial waves for Li as LCAO basis

Reference energy: -196157.275402

Spin-polarized calculation.
Magnetic moment: 0.000000

Convergence criteria:
  Maximum total energy change: 0.0005 eV / electron
  Maximum integral of absolute density change: 0.0001 electrons
  Maximum integral of absolute eigenstate change: 4e-08 eV^2
  Maximum change in atomic force: 1e-06 eV / Ang
  Maximum number of iterations: 333

Symmetries present (total): 1

  ( 1  0  0)
  ( 0  1  0)
  ( 0  0  1)

144 k-points: 6 x 6 x 4 Monkhorst-Pack grid
144 k-points in the irreducible part of the Brillouin zone
       k-points in crystal coordinates                weights
   0:    -0.41666667   -0.41666667   -0.37500000          1/144
   1:    -0.41666667   -0.41666667   -0.12500000          1/144
   2:    -0.41666667   -0.41666667    0.12500000          1/144
   3:    -0.41666667   -0.41666667    0.37500000          1/144
   4:    -0.41666667   -0.25000000   -0.37500000          1/144
   5:    -0.41666667   -0.25000000   -0.12500000          1/144
   6:    -0.41666667   -0.25000000    0.12500000          1/144
   7:    -0.41666667   -0.25000000    0.37500000          1/144
   8:    -0.41666667   -0.08333333   -0.37500000          1/144
   9:    -0.41666667   -0.08333333   -0.12500000          1/144
          ...
 143:     0.41666667    0.41666667    0.37500000          1/144

Wave functions: Plane wave expansion
  Cutoff energy: 600.000 eV
  Number of coefficients (min, max): 9132, 9161
  Pulay-stress correction: 0.000000 eV/Ang^3 (de/decut=0.000000)
  Using FFTW library
  ScaLapack parameters: grid=1x1, blocksize=None
  Wavefunction extrapolation:
    Improved wavefunction reuse through dual PAW basis

  Fermi-Dirac: width=0.0010 eV

Eigensolver
   Davidson(niter=2, smin=None, normalize=True)

Densities:
  Coarse grid: 60*35*27 grid
  Fine grid: 120*70*54 grid
  Total Charge: 0.000000

Density mixing:
  Method: difference
  Backend: pulay
  Linear mixing parameter: 0.05
  Mixing with 5 old densities
  Damping of long wave oscillations: 50

Hamiltonian:
  XC and Coulomb potentials evaluated on a 120*70*54 grid
  Using the LDA Exchange-Correlation functional

Total number of cores used: 64
Parallelization over k-points: 16
Domain decomposition: 2 x 2 x 1

Number of atoms: 28
Number of atomic orbitals: 148
Number of bands in calculation: 112
Number of valence electrons: 180
Bands to converge: occupied

... initialized

Initializing position-dependent things.

Density initialized from atomic densities
Creating initial wave functions:
  112 bands from LCAO basis set

               O     O  P  O
            PO           OMn     O
                  O          MO
            O        Li O
             Mn  Mn          OP
         O       O Li O
         Li     O P         O
       Li

Positions:
   0 O     -1.280122   -2.495595   -1.112331    ( 0.0000,  0.0000,  0.0000)
   1 O     -3.023238    2.918858    1.191723    ( 0.0000,  0.0000,  0.0000)
   2 O      1.997451    0.467212    1.441442    ( 0.0000,  0.0000,  0.0000)
   3 O      3.740343   -0.043905   -0.862614    ( 0.0000,  0.0000,  0.0000)
   4 O      1.997419    2.918835    1.441465    ( 0.0000,  0.0000,  0.0000)
   5 O      3.740372   -2.495531   -0.862587    ( 0.0000,  0.0000,  0.0000)
   6 O     -1.280154   -0.043891   -1.112309    ( 0.0000,  0.0000,  0.0000)
   7 O     -3.023210    0.467136    1.191750    ( 0.0000,  0.0000,  0.0000)
   8 O     -4.147405   -1.269737   -0.856207    ( 0.0000,  0.0000,  0.0000)
   9 O     -0.155894    1.692986    1.447725    ( 0.0000,  0.0000,  0.0000)
  10 O      4.864578    1.693016    1.185324    ( 0.0000,  0.0000,  0.0000)
  11 O      0.873163   -1.269706   -1.118625    ( 0.0000,  0.0000,  0.0000)
  12 Mn    -2.437108   -1.269902    0.302197    ( 0.0000,  0.0000,  1.0000)
  13 Mn    -1.866187    1.693156   -2.001927    ( 0.0000,  0.0000, -1.0000)
  14 Mn     3.154299    1.693181    0.016917    ( 0.0000,  0.0000, -1.0000)
  15 Mn     2.583444   -1.269877    2.331074    ( 0.0000,  0.0000,  1.0000)
  16 P     -0.543052   -1.269720   -1.734187    ( 0.0000,  0.0000,  0.0000)
  17 P     -3.760282    1.692974    0.569859    ( 0.0000,  0.0000,  0.0000)
  18 P      1.260300    1.693000    2.063344    ( 0.0000,  0.0000,  0.0000)
  19 P      4.477470   -1.269695   -0.240696    ( 0.0000,  0.0000,  0.0000)
  20 O     -0.544413   -1.269738    1.348523    ( 0.0000,  0.0000,  0.0000)
  21 O     -3.758895    1.692992   -0.955558    ( 0.0000,  0.0000,  0.0000)
  22 O      1.261690    1.693018   -1.019367    ( 0.0000,  0.0000,  0.0000)
  23 O      4.476045   -1.269713    1.284716    ( 0.0000,  0.0000,  0.0000)
  24 Li    -4.662027   -2.751322   -2.139440    ( 0.0000,  0.0000,  0.0000)
  25 Li     0.358703   -2.751277    0.164614    ( 0.0000,  0.0000,  0.0000)
  26 Li    -4.662011    0.211617   -2.139439    ( 0.0000,  0.0000,  0.0000)
  27 Li     0.358720    0.211628    0.164615    ( 0.0000,  0.0000,  0.0000)

Unit cell:
           periodic     x           y           z      points  spacing
  1. axis:    yes   10.041096    0.000054   -0.000022    60     0.1674
  2. axis:    yes    0.000032    5.925857    0.000001    35     0.1693
  3. axis:    yes   -0.000010    0.000001    4.608134    27     0.1707

  Lengths:  10.041096   5.925857   4.608134
  Angles:   89.999974  90.000250  89.999381

Effective grid spacing dv^(1/3) = 0.1691

                     log10-error:           total        iterations:
           time      wfs    density  force  energy       poisson  magmom
iter:   1  21:47:49                       -233.727326             +0.0000
iter:   2  21:48:09  -0.47  -0.95         -231.556136             +0.0004
iter:   3  21:48:29  -0.60  -1.00         -220.871207             +0.0005
iter:   4  21:48:49  -1.21  -1.30         -222.192392             +0.4136
iter:   5  21:49:08  -2.07  -1.36         -222.228833             +0.1667
iter:   6  21:49:28  -2.27  -1.41         -224.435069             -0.4118
iter:   7  21:49:48  -2.38  -1.49         -225.815528             +0.1661
iter:   8  21:50:07  -2.37  -1.67         -226.391577             -0.0982
iter:   9  21:50:27  -2.90  -2.11         -226.333509             -0.0280
iter:  10  21:50:47  -3.60  -2.18         -226.339391             -0.0028
iter:  11  21:51:07  -3.85  -2.18         -226.326253             -0.0034
iter:  12  21:51:26  -2.16  -2.19         -226.252620             -0.0007
iter:  13  21:51:46  -2.94  -2.47         -226.246501             -0.0010
iter:  14  21:52:06  -4.19  -2.68         -226.228077             -0.0002
iter:  15  21:52:25  -2.97  -2.72         -226.183451             +0.0001
iter:  16  21:52:45  -3.85  -2.85         -226.180614             -0.0000
iter:  17  21:53:05  -4.33  -3.02         -226.178493             -0.0000
iter:  18  21:53:24  -4.15  -3.19         -226.178314             -0.0000
iter:  19  21:53:44  -4.59  -3.30         -226.177362             -0.0000
iter:  20  21:54:04  -5.00  -3.31         -226.176605             -0.0000
iter:  21  21:54:23  -4.89  -3.35         -226.176035             -0.0000
iter:  22  21:54:43  -5.06  -3.42         -226.175631             -0.0000
iter:  23  21:55:03  -5.26  -3.67         -226.175309             -0.0000
iter:  24  21:55:22  -6.07  -3.76         -226.175208             -0.0000
iter:  25  21:55:42  -5.83  -3.82         -226.175126             +0.0000
iter:  26  21:56:02  -5.45  -3.89         -226.175078             -0.0000
iter:  27  21:56:21  -6.40  -3.96         -226.175072             +0.0000
iter:  28  21:56:41  -5.81  -4.04         -226.175077             +0.0000
iter:  29  21:57:01  -6.08  -4.14         -226.175045             +0.0000
iter:  30  21:57:20  -6.63  -4.33         -226.175043             +0.0000
iter:  31  21:57:40  -6.81  -4.40         -226.175045             +0.0000
iter:  32  21:58:04  -7.41  -4.51         -226.175043             +0.0000
iter:  33  21:58:24  -6.94  -4.57         -226.175040             +0.0000
iter:  34  21:58:48  -7.50  -4.68    -2.29-226.175040             +0.0000
iter:  35  21:59:13  -7.81  -4.76    -2.89-226.175039             +0.0000
iter:  36  21:59:32  -7.33  -4.80         -226.175040             +0.0000
iter:  37  21:59:57  -7.64  -4.84    -2.44-226.175038             +0.0000
iter:  38  22:00:21  -8.86  -5.14    -3.53-226.175038             +0.0000
iter:  39  22:00:46  -8.43  -5.17    -2.75-226.175038             -0.0000
iter:  40  22:01:10  -8.59  -5.40    -3.12-226.175038             +0.0000
iter:  41  22:01:34  -8.70  -5.55    -3.09-226.175038             +0.0000
iter:  42  22:01:58  -9.67  -5.71    -3.96-226.175038             +0.0000
iter:  43  22:02:23  -9.68  -5.87    -3.56-226.175038             -0.0000
iter:  44  22:02:47 -10.13  -5.97    -3.74-226.175038             -0.0000
iter:  45  22:03:12  -9.52  -6.08    -3.79-226.175038             -0.0000
iter:  46  22:03:36 -10.38  -6.17    -3.71-226.175038             -0.0000
iter:  47  22:04:00 -10.98  -6.38    -4.55-226.175038             -0.0000
iter:  48  22:04:25 -10.95  -6.47    -4.39-226.175038             -0.0000
iter:  49  22:04:49 -11.05  -6.55    -4.40-226.175038             -0.0000
iter:  50  22:05:13 -11.17  -6.69    -4.50-226.175038             -0.0000
iter:  51  22:05:38 -11.70  -6.80    -4.49-226.175038             -0.0000
iter:  52  22:06:02 -11.77  -6.88    -4.54-226.175038             +0.0000
iter:  53  22:06:26 -12.37  -7.03    -4.81-226.175038             -0.0000
iter:  54  22:06:51 -13.26  -7.23    -5.26-226.175038             -0.0000
iter:  55  22:07:15 -12.46  -7.32    -4.99-226.175038             +0.0000
iter:  56  22:07:39 -13.09  -7.63    -5.18-226.175038             -0.0000
iter:  57  22:08:04 -13.36  -7.85    -5.49-226.175038             -0.0000
iter:  58  22:08:28 -14.61  -7.97    -6.29-226.175038             -0.0000

Converged after 58 iterations.

Dipole moment: (18.326425, -2.305525, -4.326130) |e|*Ang

Total magnetic moment: (0.000000, 0.000000, -0.000000)
Local magnetic moments:
   0 O  ( 0.000000,  0.000000, -0.001811)
   1 O  ( 0.000000,  0.000000,  0.001847)
   2 O  ( 0.000000,  0.000000,  0.002209)
   3 O  ( 0.000000,  0.000000, -0.002049)
   4 O  ( 0.000000,  0.000000,  0.002203)
   5 O  ( 0.000000,  0.000000, -0.002044)
   6 O  ( 0.000000,  0.000000, -0.001816)
   7 O  ( 0.000000,  0.000000,  0.001852)
   8 O  ( 0.000000,  0.000000,  0.031007)
   9 O  ( 0.000000,  0.000000, -0.031088)
  10 O  ( 0.000000,  0.000000, -0.030882)
  11 O  ( 0.000000,  0.000000,  0.031127)
  12 Mn ( 0.000000,  0.000000,  4.395765)
  13 Mn ( 0.000000,  0.000000, -4.395754)
  14 Mn ( 0.000000,  0.000000, -4.395823)
  15 Mn ( 0.000000,  0.000000,  4.396090)
  16 P  ( 0.000000,  0.000000,  0.000866)
  17 P  ( 0.000000,  0.000000, -0.000731)
  18 P  ( 0.000000,  0.000000, -0.000849)
  19 P  ( 0.000000,  0.000000,  0.000660)
  20 O  ( 0.000000,  0.000000,  0.028434)
  21 O  ( 0.000000,  0.000000, -0.028426)
  22 O  ( 0.000000,  0.000000, -0.028679)
  23 O  ( 0.000000,  0.000000,  0.028348)
  24 Li ( 0.000000,  0.000000,  0.000004)
  25 Li ( 0.000000,  0.000000,  0.000003)
  26 Li ( 0.000000,  0.000000,  0.000004)
  27 Li ( 0.000000,  0.000000,  0.000003)

Energy contributions relative to reference atoms: (reference = -196157.275402)

Kinetic:       +277.572200
Potential:     -240.926682
External:        +0.000000
XC:            -264.709128
Entropy (-ST):   -0.000000
Local:           +1.888572
Free energy:   -226.175038
Extrapolated:  -226.175038

Spin contamination: 9.455918 electrons
Showing only first 2 kpts
                      Up                     Down
 Kpt  Band  Eigenvalues  Occupancy  Eigenvalues  Occupancy
  0    88      6.53060    0.00694      6.53105    0.00694
  0    89      6.56423    0.00694      6.56442    0.00694
  0    90      8.42190    0.00000      8.42638    0.00000
  0    91      8.44624    0.00000      8.44794    0.00000

  1    88      6.56875    0.00694      6.56895    0.00694
  1    89      6.59598    0.00694      6.59523    0.00694
  1    90      8.38076    0.00000      8.38279    0.00000
  1    91      8.40413    0.00000      8.40478    0.00000

Fermi level: 7.17010

Gap: 1.698 eV
Transition (v -> c):
  (s=0, k=49, n=89, [-0.08, -0.42, -0.12]) -> (s=0, k=82, n=90, [0.08, -0.08, 0.12])
Writing to born-0.01-14z-.gpw (mode='all')