User:   madkru@i008.nifl.fysik.dtu.dk
Date:   Fri Mar 26 00:19:55 2021
Arch:   x86_64
Pid:    26969
Python: 3.7.4
gpaw:   /home/niflheim/madkru/venv_folder/gpaw/gpaw (d224efde0f)
_gpaw:  /home/niflheim/madkru/venv_folder/gpaw/build/lib.linux-x86_64-ivybridge-3.7/
        _gpaw.cpython-37m-x86_64-linux-gnu.so (4fd39e8b1e)
ase:    /home/niflheim/madkru/venv_folder/ase/ase (version 3.21.0b1-4d5a73cb29)
numpy:  /home/niflheim/madkru/venv_folder/lib/python3.7/site-packages/numpy (version 1.19.4)
scipy:  /home/niflheim/madkru/venv_folder/lib/python3.7/site-packages/scipy (version 1.5.4)
units:  Angstrom and eV
cores: 64
OMP_NUM_THREADS: 1

Input parameters:
  convergence: {bands: occupied,
                density: 0.0001,
                eigenstates: 4e-08,
                energy: 0.0005,
                forces: 1e-06}
  kpts: [6 6 4]
  mode: {ecut: 600.0,
         gammacentered: False,
         name: pw}
  occupations: {fixmagmom: False,
                name: fermi-dirac,
                width: 0.001}
  symmetry: {point_group: False,
             time_reversal: False}

System changes: positions, numbers, cell, pbc, initial_charges, initial_magmoms

Initialize ...

O-setup:
  name: Oxygen
  id: 9b9d51c344dea68c822856295a461509
  Z: 8.0
  valence: 6
  core: 2
  charge: 0.0
  file: /home/modules/software/GPAW-setups/0.9.20000/O.LDA.gz
  compensation charges: gauss, rc=0.21, lmax=2
  cutoffs: 1.17(filt), 0.83(core),
  valence states:
                energy  radius
    2s(2.00)   -23.752   0.688
    2p(4.00)    -9.195   0.598
    *s           3.459   0.688
    *p          18.016   0.598
    *d           0.000   0.619

  Using partial waves for O as LCAO basis

Mn-setup:
  name: Manganese
  id: 0d715a8018be061a6e9ea6f2d364ac92
  Z: 25.0
  valence: 15
  core: 10
  charge: 0.0
  file: /home/modules/software/GPAW-setups/0.9.20000/Mn.LDA.gz
  compensation charges: gauss, rc=0.38, lmax=2
  cutoffs: 2.14(filt), 0.86(core),
  valence states:
                energy  radius
    3s(2.00)   -85.387   1.275
    4s(2.00)    -5.282   1.275
    3p(6.00)   -54.493   1.281
    4p(0.00)    -1.471   1.281
    3d(5.00)    -7.009   1.138
    *d          20.203   1.138

[...]

P-setup:
  name: Phosphorus
  id: a5561c299094968922a179ab894d2e2d
  Z: 15.0
  valence: 5
  core: 10
  charge: 0.0
  file: /home/modules/software/GPAW-setups/0.9.20000/P.LDA.gz
  compensation charges: gauss, rc=0.30, lmax=2
  cutoffs: 1.69(filt), 1.81(core),
  valence states:
                energy  radius
    3s(2.00)   -14.015   0.953
    3p(3.00)    -5.596   0.953
    *s          13.197   0.953
    *p          21.615   0.953
    *d           0.000   0.953

[...]

Li-setup:
  name: Lithium
  id: b73562207f97a71b6967473b66fe8b65
  Z: 3.0
  valence: 1
  core: 2
  charge: 0.0
  file: /home/modules/software/GPAW-setups/0.9.20000/Li.LDA.gz
  compensation charges: gauss, rc=0.33, lmax=2
  cutoffs: 1.91(filt), 2.55(core),
  valence states:
                energy  radius
    2s(1.00)    -2.874   1.058
    2p(0.00)    -1.126   1.058
    *s          24.338   1.058

  Using partial waves for Li as LCAO basis

Reference energy: -196157.275402

Spin-polarized calculation.
Magnetic moment: 0.000000

Convergence criteria:
  Maximum total energy change: 0.0005 eV / electron
  Maximum integral of absolute density change: 0.0001 electrons
  Maximum integral of absolute eigenstate change: 4e-08 eV^2
  Maximum change in atomic force: 1e-06 eV / Ang
  Maximum number of iterations: 333

Symmetries present (total): 1

  ( 1  0  0)
  ( 0  1  0)
  ( 0  0  1)

144 k-points: 6 x 6 x 4 Monkhorst-Pack grid
144 k-points in the irreducible part of the Brillouin zone
       k-points in crystal coordinates                weights
   0:    -0.41666667   -0.41666667   -0.37500000          1/144
   1:    -0.41666667   -0.41666667   -0.12500000          1/144
   2:    -0.41666667   -0.41666667    0.12500000          1/144
   3:    -0.41666667   -0.41666667    0.37500000          1/144
   4:    -0.41666667   -0.25000000   -0.37500000          1/144
   5:    -0.41666667   -0.25000000   -0.12500000          1/144
   6:    -0.41666667   -0.25000000    0.12500000          1/144
   7:    -0.41666667   -0.25000000    0.37500000          1/144
   8:    -0.41666667   -0.08333333   -0.37500000          1/144
   9:    -0.41666667   -0.08333333   -0.12500000          1/144
          ...
 143:     0.41666667    0.41666667    0.37500000          1/144

Wave functions: Plane wave expansion
  Cutoff energy: 600.000 eV
  Number of coefficients (min, max): 9132, 9161
  Pulay-stress correction: 0.000000 eV/Ang^3 (de/decut=0.000000)
  Using FFTW library
  ScaLapack parameters: grid=1x1, blocksize=None
  Wavefunction extrapolation:
    Improved wavefunction reuse through dual PAW basis

  Fermi-Dirac: width=0.0010 eV

Eigensolver
   Davidson(niter=2, smin=None, normalize=True)

Densities:
  Coarse grid: 60*35*27 grid
  Fine grid: 120*70*54 grid
  Total Charge: 0.000000

Density mixing:
  Method: difference
  Backend: pulay
  Linear mixing parameter: 0.05
  Mixing with 5 old densities
  Damping of long wave oscillations: 50

Hamiltonian:
  XC and Coulomb potentials evaluated on a 120*70*54 grid
  Using the LDA Exchange-Correlation functional

Total number of cores used: 64
Parallelization over k-points: 16
Domain decomposition: 2 x 2 x 1

Number of atoms: 28
Number of atomic orbitals: 148
Number of bands in calculation: 112
Number of valence electrons: 180
Bands to converge: occupied

... initialized

Initializing position-dependent things.

Density initialized from atomic densities
Creating initial wave functions:
  112 bands from LCAO basis set

               O     O  P  O
            PO           OMn     O
                  O          MO
            O        Li O
             Mn  Mn          OP
         O       O Li O
         Li     O P         O
       Li

Positions:
   0 O     -1.280122   -2.495595   -1.112331    ( 0.0000,  0.0000,  0.0000)
   1 O     -3.023238    2.918858    1.191723    ( 0.0000,  0.0000,  0.0000)
   2 O      1.997451    0.467212    1.441442    ( 0.0000,  0.0000,  0.0000)
   3 O      3.740343   -0.043905   -0.862614    ( 0.0000,  0.0000,  0.0000)
   4 O      1.997419    2.918835    1.441465    ( 0.0000,  0.0000,  0.0000)
   5 O      3.740372   -2.495531   -0.862587    ( 0.0000,  0.0000,  0.0000)
   6 O     -1.280154   -0.043891   -1.112309    ( 0.0000,  0.0000,  0.0000)
   7 O     -3.023210    0.467136    1.191750    ( 0.0000,  0.0000,  0.0000)
   8 O     -4.147405   -1.269737   -0.856207    ( 0.0000,  0.0000,  0.0000)
   9 O     -0.155894    1.692986    1.447725    ( 0.0000,  0.0000,  0.0000)
  10 O      4.864578    1.693016    1.185324    ( 0.0000,  0.0000,  0.0000)
  11 O      0.873163   -1.269706   -1.118625    ( 0.0000,  0.0000,  0.0000)
  12 Mn    -2.437108   -1.269902    0.302197    ( 0.0000,  0.0000,  1.0000)
  13 Mn    -1.866187    1.693156   -2.001927    ( 0.0000,  0.0000, -1.0000)
  14 Mn     3.154299    1.693181    0.026917    ( 0.0000,  0.0000, -1.0000)
  15 Mn     2.583444   -1.269877    2.331074    ( 0.0000,  0.0000,  1.0000)
  16 P     -0.543052   -1.269720   -1.734187    ( 0.0000,  0.0000,  0.0000)
  17 P     -3.760282    1.692974    0.569859    ( 0.0000,  0.0000,  0.0000)
  18 P      1.260300    1.693000    2.063344    ( 0.0000,  0.0000,  0.0000)
  19 P      4.477470   -1.269695   -0.240696    ( 0.0000,  0.0000,  0.0000)
  20 O     -0.544413   -1.269738    1.348523    ( 0.0000,  0.0000,  0.0000)
  21 O     -3.758895    1.692992   -0.955558    ( 0.0000,  0.0000,  0.0000)
  22 O      1.261690    1.693018   -1.019367    ( 0.0000,  0.0000,  0.0000)
  23 O      4.476045   -1.279713    1.284716    ( 0.0000,  0.0000,  0.0000)
  24 Li    -4.662027   -2.751322   -2.139440    ( 0.0000,  0.0000,  0.0000)
  25 Li     0.358703   -2.751277    0.164614    ( 0.0000,  0.0000,  0.0000)
  26 Li    -4.662011    0.211617   -2.139439    ( 0.0000,  0.0000,  0.0000)
  27 Li     0.358720    0.211628    0.164615    ( 0.0000,  0.0000,  0.0000)

Unit cell:
           periodic     x           y           z      points  spacing
  1. axis:    yes   10.041096    0.000054   -0.000022    60     0.1674
  2. axis:    yes    0.000032    5.925857    0.000001    35     0.1693
  3. axis:    yes   -0.000010    0.000001    4.608134    27     0.1707

  Lengths:  10.041096   5.925857   4.608134
  Angles:   89.999974  90.000250  89.999381

Effective grid spacing dv^(1/3) = 0.1691

                     log10-error:           total        iterations:
           time      wfs    density  force  energy       poisson  magmom
iter:   1  00:21:28                       -233.730168             +0.0000
iter:   2  00:21:48  -0.47  -0.95         -231.549865             +0.0020
iter:   3  00:22:08  -0.61  -1.00         -220.803101             +0.0021
iter:   4  00:22:27  -1.19  -1.31         -220.898019             +0.3149
iter:   5  00:22:47  -2.12  -1.40         -222.881474             +0.1696
iter:   6  00:23:07  -2.18  -1.38         -223.685103             +0.2294
iter:   7  00:23:27  -2.17  -1.53         -223.806613             -0.1807
iter:   8  00:23:46  -2.52  -1.68         -225.615123             -0.5620
iter:   9  00:24:06  -2.26  -1.90         -226.422948             -0.2611
iter:  10  00:24:26  -2.24  -2.01         -226.310625             -0.0878
iter:  11  00:24:45  -2.91  -2.12         -226.297691             -0.0210
iter:  12  00:25:05  -2.61  -2.16         -226.231950             +0.0073
iter:  13  00:25:25  -2.97  -2.50         -226.219790             -0.0041
iter:  14  00:25:44  -2.96  -2.77         -226.181898             +0.0065
iter:  15  00:26:04  -3.59  -2.92         -226.179558             +0.0001
iter:  16  00:26:24  -4.33  -3.18         -226.179073             +0.0000
iter:  17  00:26:43  -4.65  -3.25         -226.175775             +0.0000
iter:  18  00:27:03  -5.27  -3.31         -226.175412             +0.0000
iter:  19  00:27:23  -4.80  -3.34         -226.175294             +0.0000
iter:  20  00:27:42  -4.80  -3.53         -226.176180             +0.0000
iter:  21  00:28:02  -5.81  -3.60         -226.175661             +0.0000
iter:  22  00:28:21  -5.54  -3.68         -226.175250             -0.0000
iter:  23  00:28:41  -5.58  -3.80         -226.175126             +0.0000
iter:  24  00:29:01  -5.84  -3.98         -226.175106             +0.0000
iter:  25  00:29:20  -6.45  -4.04         -226.175110             +0.0000
iter:  26  00:29:40  -6.12  -4.10         -226.175106             +0.0000
iter:  27  00:30:00  -6.82  -4.35         -226.175096             +0.0000
iter:  28  00:30:24  -7.64  -4.38         -226.175097             +0.0000
iter:  29  00:30:44  -6.45  -4.40         -226.175099             +0.0000
iter:  30  00:31:04  -7.31  -4.71         -226.175099             +0.0000
iter:  31  00:31:23  -6.94  -4.79         -226.175093             +0.0000
iter:  32  00:31:48  -7.93  -4.92    -2.19-226.175093             +0.0000
iter:  33  00:32:12  -8.23  -5.13    -3.08-226.175093             +0.0000
iter:  34  00:32:36  -9.41  -5.22    -3.30-226.175093             +0.0000
iter:  35  00:33:01  -8.49  -5.26    -3.37-226.175093             +0.0000
iter:  36  00:33:25  -9.54  -5.35    -3.54-226.175093             +0.0000
iter:  37  00:33:49  -9.50  -5.43    -3.14-226.175093             +0.0000
iter:  38  00:34:14  -9.88  -5.71    -3.68-226.175093             +0.0000
iter:  39  00:34:38 -10.18  -5.87    -3.99-226.175093             -0.0000
iter:  40  00:35:03  -9.89  -5.97    -3.70-226.175093             -0.0000
iter:  41  00:35:27 -10.91  -6.09    -4.04-226.175093             -0.0000
iter:  42  00:35:51  -9.71  -6.16    -3.97-226.175093             +0.0000
iter:  43  00:36:16 -10.50  -6.30    -4.27-226.175093             -0.0000
iter:  44  00:36:40 -11.31  -6.36    -4.37-226.175093             -0.0000
iter:  45  00:37:04 -11.41  -6.44    -4.78-226.175093             -0.0000
iter:  46  00:37:29 -11.43  -6.54    -4.63-226.175093             -0.0000
iter:  47  00:37:53 -12.42  -6.63    -4.92-226.175093             -0.0000
iter:  48  00:38:17 -10.76  -6.68    -4.46-226.175093             -0.0000
iter:  49  00:38:42 -12.24  -6.98    -5.02-226.175093             -0.0000
iter:  50  00:39:06 -11.12  -7.02    -4.66-226.175093             -0.0000
iter:  51  00:39:30 -12.02  -7.25    -4.87-226.175093             -0.0000
iter:  52  00:39:55 -12.89  -7.56    -5.46-226.175093             -0.0000
iter:  53  00:40:19 -13.16  -7.62    -5.55-226.175093             -0.0000
iter:  54  00:40:43 -13.10  -7.68    -5.52-226.175093             -0.0000
iter:  55  00:41:08 -14.32  -7.92    -6.01-226.175093             -0.0000

Converged after 55 iterations.

Dipole moment: (18.327100, -2.308240, -4.524282) |e|*Ang

Total magnetic moment: (0.000000, 0.000000, -0.000000)
Local magnetic moments:
   0 O  ( 0.000000,  0.000000, -0.001809)
   1 O  ( 0.000000,  0.000000,  0.001800)
   2 O  ( 0.000000,  0.000000,  0.001791)
   3 O  ( 0.000000,  0.000000, -0.001842)
   4 O  ( 0.000000,  0.000000,  0.001823)
   5 O  ( 0.000000,  0.000000, -0.001771)
   6 O  ( 0.000000,  0.000000, -0.001813)
   7 O  ( 0.000000,  0.000000,  0.001822)
   8 O  ( 0.000000,  0.000000,  0.031097)
   9 O  ( 0.000000,  0.000000, -0.031097)
  10 O  ( 0.000000,  0.000000, -0.031095)
  11 O  ( 0.000000,  0.000000,  0.031096)
  12 Mn ( 0.000000,  0.000000,  4.395765)
  13 Mn ( 0.000000,  0.000000, -4.395783)
  14 Mn ( 0.000000,  0.000000, -4.395737)
  15 Mn ( 0.000000,  0.000000,  4.395749)
  16 P  ( 0.000000,  0.000000,  0.000866)
  17 P  ( 0.000000,  0.000000, -0.000864)
  18 P  ( 0.000000,  0.000000, -0.000871)
  19 P  ( 0.000000,  0.000000,  0.000869)
  20 O  ( 0.000000,  0.000000,  0.028417)
  21 O  ( 0.000000,  0.000000, -0.028416)
  22 O  ( 0.000000,  0.000000, -0.028420)
  23 O  ( 0.000000,  0.000000,  0.028421)
  24 Li ( 0.000000,  0.000000,  0.000006)
  25 Li ( 0.000000,  0.000000,  0.000000)
  26 Li ( 0.000000,  0.000000, -0.000006)
  27 Li ( 0.000000,  0.000000,  0.000000)

Energy contributions relative to reference atoms: (reference = -196157.275402)

Kinetic:       +277.621961
Potential:     -240.964849
External:        +0.000000
XC:            -264.720655
Entropy (-ST):   -0.000000
Local:           +1.888450
Free energy:   -226.175093
Extrapolated:  -226.175093

Spin contamination: 9.455315 electrons
Showing only first 2 kpts
                      Up                     Down
 Kpt  Band  Eigenvalues  Occupancy  Eigenvalues  Occupancy
  0    88      6.53038    0.00694      6.53050    0.00694
  0    89      6.56405    0.00694      6.56407    0.00694
  0    90      8.42675    0.00000      8.42672    0.00000
  0    91      8.44836    0.00000      8.44835    0.00000

  1    88      6.56879    0.00694      6.56891    0.00694
  1    89      6.59597    0.00694      6.59604    0.00694
  1    90      8.38311    0.00000      8.38303    0.00000
  1    91      8.40523    0.00000      8.40525    0.00000

Fermi level: 7.61044

Gap: 1.699 eV
Transition (v -> c):
  (s=0, k=93, n=89, [0.08, 0.42, -0.12]) -> (s=0, k=85, n=90, [0.08, 0.08, -0.12])
Writing to born-0.01-23y-.gpw (mode='all')