User:   madkru@i008.nifl.fysik.dtu.dk
Date:   Wed Mar 24 17:45:48 2021
Arch:   x86_64
Pid:    26969
Python: 3.7.4
gpaw:   /home/niflheim/madkru/venv_folder/gpaw/gpaw (d224efde0f)
_gpaw:  /home/niflheim/madkru/venv_folder/gpaw/build/lib.linux-x86_64-ivybridge-3.7/
        _gpaw.cpython-37m-x86_64-linux-gnu.so (4fd39e8b1e)
ase:    /home/niflheim/madkru/venv_folder/ase/ase (version 3.21.0b1-4d5a73cb29)
numpy:  /home/niflheim/madkru/venv_folder/lib/python3.7/site-packages/numpy (version 1.19.4)
scipy:  /home/niflheim/madkru/venv_folder/lib/python3.7/site-packages/scipy (version 1.5.4)
units:  Angstrom and eV
cores: 64
OMP_NUM_THREADS: 1

Input parameters:
  convergence: {bands: occupied,
                density: 0.0001,
                eigenstates: 4e-08,
                energy: 0.0005,
                forces: 1e-06}
  kpts: [6 6 4]
  mode: {ecut: 600.0,
         gammacentered: False,
         name: pw}
  occupations: {fixmagmom: False,
                name: fermi-dirac,
                width: 0.001}
  symmetry: {point_group: False,
             time_reversal: False}

System changes: positions, numbers, cell, pbc, initial_charges, initial_magmoms

Initialize ...

O-setup:
  name: Oxygen
  id: 9b9d51c344dea68c822856295a461509
  Z: 8.0
  valence: 6
  core: 2
  charge: 0.0
  file: /home/modules/software/GPAW-setups/0.9.20000/O.LDA.gz
  compensation charges: gauss, rc=0.21, lmax=2
  cutoffs: 1.17(filt), 0.83(core),
  valence states:
                energy  radius
    2s(2.00)   -23.752   0.688
    2p(4.00)    -9.195   0.598
    *s           3.459   0.688
    *p          18.016   0.598
    *d           0.000   0.619

  Using partial waves for O as LCAO basis

Mn-setup:
  name: Manganese
  id: 0d715a8018be061a6e9ea6f2d364ac92
  Z: 25.0
  valence: 15
  core: 10
  charge: 0.0
  file: /home/modules/software/GPAW-setups/0.9.20000/Mn.LDA.gz
  compensation charges: gauss, rc=0.38, lmax=2
  cutoffs: 2.14(filt), 0.86(core),
  valence states:
                energy  radius
    3s(2.00)   -85.387   1.275
    4s(2.00)    -5.282   1.275
    3p(6.00)   -54.493   1.281
    4p(0.00)    -1.471   1.281
    3d(5.00)    -7.009   1.138
    *d          20.203   1.138

[...]

P-setup:
  name: Phosphorus
  id: a5561c299094968922a179ab894d2e2d
  Z: 15.0
  valence: 5
  core: 10
  charge: 0.0
  file: /home/modules/software/GPAW-setups/0.9.20000/P.LDA.gz
  compensation charges: gauss, rc=0.30, lmax=2
  cutoffs: 1.69(filt), 1.81(core),
  valence states:
                energy  radius
    3s(2.00)   -14.015   0.953
    3p(3.00)    -5.596   0.953
    *s          13.197   0.953
    *p          21.615   0.953
    *d           0.000   0.953

[...]

Li-setup:
  name: Lithium
  id: b73562207f97a71b6967473b66fe8b65
  Z: 3.0
  valence: 1
  core: 2
  charge: 0.0
  file: /home/modules/software/GPAW-setups/0.9.20000/Li.LDA.gz
  compensation charges: gauss, rc=0.33, lmax=2
  cutoffs: 1.91(filt), 2.55(core),
  valence states:
                energy  radius
    2s(1.00)    -2.874   1.058
    2p(0.00)    -1.126   1.058
    *s          24.338   1.058

  Using partial waves for Li as LCAO basis

Reference energy: -196157.275402

Spin-polarized calculation.
Magnetic moment: 0.000000

Convergence criteria:
  Maximum total energy change: 0.0005 eV / electron
  Maximum integral of absolute density change: 0.0001 electrons
  Maximum integral of absolute eigenstate change: 4e-08 eV^2
  Maximum change in atomic force: 1e-06 eV / Ang
  Maximum number of iterations: 333

Symmetries present (total): 1

  ( 1  0  0)
  ( 0  1  0)
  ( 0  0  1)

144 k-points: 6 x 6 x 4 Monkhorst-Pack grid
144 k-points in the irreducible part of the Brillouin zone
       k-points in crystal coordinates                weights
   0:    -0.41666667   -0.41666667   -0.37500000          1/144
   1:    -0.41666667   -0.41666667   -0.12500000          1/144
   2:    -0.41666667   -0.41666667    0.12500000          1/144
   3:    -0.41666667   -0.41666667    0.37500000          1/144
   4:    -0.41666667   -0.25000000   -0.37500000          1/144
   5:    -0.41666667   -0.25000000   -0.12500000          1/144
   6:    -0.41666667   -0.25000000    0.12500000          1/144
   7:    -0.41666667   -0.25000000    0.37500000          1/144
   8:    -0.41666667   -0.08333333   -0.37500000          1/144
   9:    -0.41666667   -0.08333333   -0.12500000          1/144
          ...
 143:     0.41666667    0.41666667    0.37500000          1/144

Wave functions: Plane wave expansion
  Cutoff energy: 600.000 eV
  Number of coefficients (min, max): 9132, 9161
  Pulay-stress correction: 0.000000 eV/Ang^3 (de/decut=0.000000)
  Using FFTW library
  ScaLapack parameters: grid=1x1, blocksize=None
  Wavefunction extrapolation:
    Improved wavefunction reuse through dual PAW basis

  Fermi-Dirac: width=0.0010 eV

Eigensolver
   Davidson(niter=2, smin=None, normalize=True)

Densities:
  Coarse grid: 60*35*27 grid
  Fine grid: 120*70*54 grid
  Total Charge: 0.000000

Density mixing:
  Method: difference
  Backend: pulay
  Linear mixing parameter: 0.05
  Mixing with 5 old densities
  Damping of long wave oscillations: 50

Hamiltonian:
  XC and Coulomb potentials evaluated on a 120*70*54 grid
  Using the LDA Exchange-Correlation functional

Total number of cores used: 64
Parallelization over k-points: 16
Domain decomposition: 2 x 2 x 1

Number of atoms: 28
Number of atomic orbitals: 148
Number of bands in calculation: 112
Number of valence electrons: 180
Bands to converge: occupied

... initialized

Initializing position-dependent things.

Density initialized from atomic densities
Creating initial wave functions:
  112 bands from LCAO basis set

               O     O  P  O
            PO           OMn     O
                  O          MO
            O        Li O
             Mn  Mn          OP
         O       O Li O
         Li     O P         O
       Li

Positions:
   0 O     -1.280122   -2.495595   -1.112331    ( 0.0000,  0.0000,  0.0000)
   1 O     -3.023238    2.918858    1.191723    ( 0.0000,  0.0000,  0.0000)
   2 O      1.997451    0.467212    1.441442    ( 0.0000,  0.0000,  0.0000)
   3 O      3.740343   -0.043905   -0.862614    ( 0.0000,  0.0000,  0.0000)
   4 O      1.997419    2.918835    1.441465    ( 0.0000,  0.0000,  0.0000)
   5 O      3.740372   -2.495531   -0.862587    ( 0.0000,  0.0000,  0.0000)
   6 O     -1.280154   -0.043891   -1.112309    ( 0.0000,  0.0000,  0.0000)
   7 O     -3.023210    0.467136    1.191750    ( 0.0000,  0.0000,  0.0000)
   8 O     -4.147405   -1.269737   -0.856207    ( 0.0000,  0.0000,  0.0000)
   9 O     -0.155894    1.692986    1.447725    ( 0.0000,  0.0000,  0.0000)
  10 O      4.864578    1.693016    1.185324    ( 0.0000,  0.0000,  0.0000)
  11 O      0.873163   -1.269706   -1.118625    ( 0.0000,  0.0000,  0.0000)
  12 Mn    -2.437108   -1.269902    0.302197    ( 0.0000,  0.0000,  1.0000)
  13 Mn    -1.866187    1.683156   -2.001927    ( 0.0000,  0.0000, -1.0000)
  14 Mn     3.154299    1.693181    0.026917    ( 0.0000,  0.0000, -1.0000)
  15 Mn     2.583444   -1.269877    2.331074    ( 0.0000,  0.0000,  1.0000)
  16 P     -0.543052   -1.269720   -1.734187    ( 0.0000,  0.0000,  0.0000)
  17 P     -3.760282    1.692974    0.569859    ( 0.0000,  0.0000,  0.0000)
  18 P      1.260300    1.693000    2.063344    ( 0.0000,  0.0000,  0.0000)
  19 P      4.477470   -1.269695   -0.240696    ( 0.0000,  0.0000,  0.0000)
  20 O     -0.544413   -1.269738    1.348523    ( 0.0000,  0.0000,  0.0000)
  21 O     -3.758895    1.692992   -0.955558    ( 0.0000,  0.0000,  0.0000)
  22 O      1.261690    1.693018   -1.019367    ( 0.0000,  0.0000,  0.0000)
  23 O      4.476045   -1.269713    1.284716    ( 0.0000,  0.0000,  0.0000)
  24 Li    -4.662027   -2.751322   -2.139440    ( 0.0000,  0.0000,  0.0000)
  25 Li     0.358703   -2.751277    0.164614    ( 0.0000,  0.0000,  0.0000)
  26 Li    -4.662011    0.211617   -2.139439    ( 0.0000,  0.0000,  0.0000)
  27 Li     0.358720    0.211628    0.164615    ( 0.0000,  0.0000,  0.0000)

Unit cell:
           periodic     x           y           z      points  spacing
  1. axis:    yes   10.041096    0.000054   -0.000022    60     0.1674
  2. axis:    yes    0.000032    5.925857    0.000001    35     0.1693
  3. axis:    yes   -0.000010    0.000001    4.608134    27     0.1707

  Lengths:  10.041096   5.925857   4.608134
  Angles:   89.999974  90.000250  89.999381

Effective grid spacing dv^(1/3) = 0.1691

                     log10-error:           total        iterations:
           time      wfs    density  force  energy       poisson  magmom
iter:   1  17:47:24                       -233.730039             +0.0000
iter:   2  17:47:44  -0.47  -0.95         -231.549891             +0.0037
iter:   3  17:48:04  -0.61  -1.00         -220.808218             +0.0039
iter:   4  17:48:24  -1.19  -1.31         -221.012540             +0.3442
iter:   5  17:48:43  -2.14  -1.39         -222.757376             +0.1875
iter:   6  17:49:03  -2.23  -1.38         -223.607742             +0.2144
iter:   7  17:49:23  -2.17  -1.53         -223.850467             -0.1104
iter:   8  17:49:42  -2.55  -1.70         -225.623678             -0.8099
iter:   9  17:50:02  -2.33  -1.92         -226.426402             -0.0250
iter:  10  17:50:22  -2.14  -2.03         -226.312633             -0.0091
iter:  11  17:50:41  -2.97  -2.17         -226.309467             -0.0047
iter:  12  17:51:01  -2.45  -2.19         -226.219135             +0.0018
iter:  13  17:51:21  -3.34  -2.64         -226.224730             -0.0007
iter:  14  17:51:40  -2.75  -2.76         -226.203140             -0.0010
iter:  15  17:52:00  -3.74  -2.89         -226.181545             -0.0003
iter:  16  17:52:20  -4.07  -3.18         -226.176642             -0.0000
iter:  17  17:52:39  -4.69  -3.28         -226.178013             -0.0000
iter:  18  17:52:59  -4.08  -3.32         -226.175703             -0.0000
iter:  19  17:53:18  -4.77  -3.44         -226.176157             -0.0000
iter:  20  17:53:38  -4.64  -3.45         -226.174863             -0.0000
iter:  21  17:53:58  -5.53  -3.78         -226.174939             -0.0000
iter:  22  17:54:18  -5.85  -3.83         -226.175013             +0.0000
iter:  23  17:54:37  -5.30  -3.87         -226.174918             +0.0000
iter:  24  17:54:57  -5.92  -4.18         -226.174906             -0.0000
iter:  25  17:55:16  -7.22  -4.37         -226.174902             +0.0000
iter:  26  17:55:36  -7.06  -4.47         -226.174895             +0.0000
iter:  27  17:56:00  -7.45  -4.54         -226.174896             +0.0000
iter:  28  17:56:25  -7.77  -4.60    -2.91-226.174895             +0.0000
iter:  29  17:56:45  -7.11  -4.63         -226.174895             +0.0000
iter:  30  17:57:04  -7.38  -4.74         -226.174894             +0.0000
iter:  31  17:57:28  -8.32  -4.88    -2.35-226.174894             +0.0000
iter:  32  17:57:53  -8.30  -4.96    -3.33-226.174894             +0.0000
iter:  33  17:58:17  -8.57  -5.03    -3.38-226.174894             +0.0000
iter:  34  17:58:42  -8.13  -5.12    -2.71-226.174894             +0.0000
iter:  35  17:59:06  -9.10  -5.67    -3.36-226.174894             +0.0000
iter:  36  17:59:30 -10.32  -5.92    -3.83-226.174894             -0.0000
iter:  37  17:59:55  -9.94  -5.98    -3.88-226.174894             +0.0000
iter:  38  18:00:19 -10.52  -6.20    -4.30-226.174894             -0.0000
iter:  39  18:00:43 -10.61  -6.31    -4.35-226.174894             -0.0000
iter:  40  18:01:07 -10.62  -6.40    -4.33-226.174894             -0.0000
iter:  41  18:01:32 -11.16  -6.44    -4.53-226.174894             -0.0000
iter:  42  18:01:56 -11.04  -6.49    -4.61-226.174894             -0.0000
iter:  43  18:02:20 -11.61  -6.55    -4.46-226.174894             -0.0000
iter:  44  18:02:45 -11.73  -6.64    -4.77-226.174894             -0.0000
iter:  45  18:03:09 -11.81  -6.76    -4.84-226.174894             -0.0000
iter:  46  18:03:34 -12.37  -6.87    -4.82-226.174894             -0.0000
iter:  47  18:03:58 -12.77  -6.96    -5.14-226.174894             -0.0000
iter:  48  18:04:22 -11.96  -7.03    -4.83-226.174894             -0.0000
iter:  49  18:04:47 -12.48  -7.13    -5.48-226.174894             -0.0000
iter:  50  18:05:11 -12.32  -7.17    -5.31-226.174894             -0.0000
iter:  51  18:05:35 -12.32  -7.28    -5.14-226.174894             -0.0000
iter:  52  18:06:00 -12.84  -7.43    -5.30-226.174894             -0.0000
iter:  53  18:06:24 -12.92  -7.55    -5.47-226.174894             -0.0000
iter:  54  18:06:48 -13.49  -7.61    -5.75-226.174894             -0.0000
iter:  55  18:07:13 -13.51  -7.72    -5.25-226.174894             -0.0000
iter:  56  18:07:37 -14.37  -8.04    -5.83-226.174894             -0.0000
iter:  57  18:08:01 -13.62  -8.10    -5.74-226.174894             -0.0000
iter:  58  18:08:26 -14.14  -8.21    -5.63-226.174894             -0.0000
iter:  59  18:08:50 -15.04  -8.45    -6.38-226.174894             -0.0000

Converged after 59 iterations.

Dipole moment: (18.327108, -2.319939, -4.524289) |e|*Ang

Total magnetic moment: (0.000000, 0.000000, -0.000000)
Local magnetic moments:
   0 O  ( 0.000000,  0.000000, -0.001283)
   1 O  ( 0.000000,  0.000000,  0.002235)
   2 O  ( 0.000000,  0.000000,  0.001825)
   3 O  ( 0.000000,  0.000000, -0.001807)
   4 O  ( 0.000000,  0.000000,  0.001790)
   5 O  ( 0.000000,  0.000000, -0.001806)
   6 O  ( 0.000000,  0.000000, -0.002346)
   7 O  ( 0.000000,  0.000000,  0.001391)
   8 O  ( 0.000000,  0.000000,  0.031098)
   9 O  ( 0.000000,  0.000000, -0.031099)
  10 O  ( 0.000000,  0.000000, -0.031096)
  11 O  ( 0.000000,  0.000000,  0.031095)
  12 Mn ( 0.000000,  0.000000,  4.395754)
  13 Mn ( 0.000000,  0.000000, -4.395719)
  14 Mn ( 0.000000,  0.000000, -4.395737)
  15 Mn ( 0.000000,  0.000000,  4.395752)
  16 P  ( 0.000000,  0.000000,  0.000862)
  17 P  ( 0.000000,  0.000000, -0.000866)
  18 P  ( 0.000000,  0.000000, -0.000871)
  19 P  ( 0.000000,  0.000000,  0.000870)
  20 O  ( 0.000000,  0.000000,  0.028416)
  21 O  ( 0.000000,  0.000000, -0.028419)
  22 O  ( 0.000000,  0.000000, -0.028420)
  23 O  ( 0.000000,  0.000000,  0.028419)
  24 Li ( 0.000000,  0.000000, -0.000007)
  25 Li ( 0.000000,  0.000000,  0.000005)
  26 Li ( 0.000000,  0.000000,  0.000007)
  27 Li ( 0.000000,  0.000000, -0.000006)

Energy contributions relative to reference atoms: (reference = -196157.275402)

Kinetic:       +277.628429
Potential:     -240.970167
External:        +0.000000
XC:            -264.721567
Entropy (-ST):   -0.000000
Local:           +1.888411
Free energy:   -226.174894
Extrapolated:  -226.174894

Spin contamination: 9.455303 electrons
Showing only first 2 kpts
                      Up                     Down
 Kpt  Band  Eigenvalues  Occupancy  Eigenvalues  Occupancy
  0    88      6.53039    0.00694      6.53001    0.00694
  0    89      6.56413    0.00694      6.56419    0.00694
  0    90      8.42676    0.00000      8.42681    0.00000
  0    91      8.44824    0.00000      8.44838    0.00000

  1    88      6.56888    0.00694      6.56871    0.00694
  1    89      6.59605    0.00694      6.59590    0.00694
  1    90      8.38306    0.00000      8.38314    0.00000
  1    91      8.40521    0.00000      8.40526    0.00000

Fermi level: 7.62864

Gap: 1.699 eV
Transition (v -> c):
  (s=1, k=69, n=89, [-0.08, 0.42, -0.12]) -> (s=0, k=86, n=90, [0.08, 0.08, 0.12])
Writing to born-0.01-13y-.gpw (mode='all')