User:   madkru@i008.nifl.fysik.dtu.dk
Date:   Fri Mar 26 04:28:41 2021
Arch:   x86_64
Pid:    26969
Python: 3.7.4
gpaw:   /home/niflheim/madkru/venv_folder/gpaw/gpaw (d224efde0f)
_gpaw:  /home/niflheim/madkru/venv_folder/gpaw/build/lib.linux-x86_64-ivybridge-3.7/
        _gpaw.cpython-37m-x86_64-linux-gnu.so (4fd39e8b1e)
ase:    /home/niflheim/madkru/venv_folder/ase/ase (version 3.21.0b1-4d5a73cb29)
numpy:  /home/niflheim/madkru/venv_folder/lib/python3.7/site-packages/numpy (version 1.19.4)
scipy:  /home/niflheim/madkru/venv_folder/lib/python3.7/site-packages/scipy (version 1.5.4)
units:  Angstrom and eV
cores: 64
OMP_NUM_THREADS: 1

Input parameters:
  convergence: {bands: occupied,
                density: 0.0001,
                eigenstates: 4e-08,
                energy: 0.0005,
                forces: 1e-06}
  kpts: [6 6 4]
  mode: {ecut: 600.0,
         gammacentered: False,
         name: pw}
  occupations: {fixmagmom: False,
                name: fermi-dirac,
                width: 0.001}
  symmetry: {point_group: False,
             time_reversal: False}

System changes: positions, numbers, cell, pbc, initial_charges, initial_magmoms

Initialize ...

O-setup:
  name: Oxygen
  id: 9b9d51c344dea68c822856295a461509
  Z: 8.0
  valence: 6
  core: 2
  charge: 0.0
  file: /home/modules/software/GPAW-setups/0.9.20000/O.LDA.gz
  compensation charges: gauss, rc=0.21, lmax=2
  cutoffs: 1.17(filt), 0.83(core),
  valence states:
                energy  radius
    2s(2.00)   -23.752   0.688
    2p(4.00)    -9.195   0.598
    *s           3.459   0.688
    *p          18.016   0.598
    *d           0.000   0.619

  Using partial waves for O as LCAO basis

Mn-setup:
  name: Manganese
  id: 0d715a8018be061a6e9ea6f2d364ac92
  Z: 25.0
  valence: 15
  core: 10
  charge: 0.0
  file: /home/modules/software/GPAW-setups/0.9.20000/Mn.LDA.gz
  compensation charges: gauss, rc=0.38, lmax=2
  cutoffs: 2.14(filt), 0.86(core),
  valence states:
                energy  radius
    3s(2.00)   -85.387   1.275
    4s(2.00)    -5.282   1.275
    3p(6.00)   -54.493   1.281
    4p(0.00)    -1.471   1.281
    3d(5.00)    -7.009   1.138
    *d          20.203   1.138

[...]

P-setup:
  name: Phosphorus
  id: a5561c299094968922a179ab894d2e2d
  Z: 15.0
  valence: 5
  core: 10
  charge: 0.0
  file: /home/modules/software/GPAW-setups/0.9.20000/P.LDA.gz
  compensation charges: gauss, rc=0.30, lmax=2
  cutoffs: 1.69(filt), 1.81(core),
  valence states:
                energy  radius
    3s(2.00)   -14.015   0.953
    3p(3.00)    -5.596   0.953
    *s          13.197   0.953
    *p          21.615   0.953
    *d           0.000   0.953

[...]

Li-setup:
  name: Lithium
  id: b73562207f97a71b6967473b66fe8b65
  Z: 3.0
  valence: 1
  core: 2
  charge: 0.0
  file: /home/modules/software/GPAW-setups/0.9.20000/Li.LDA.gz
  compensation charges: gauss, rc=0.33, lmax=2
  cutoffs: 1.91(filt), 2.55(core),
  valence states:
                energy  radius
    2s(1.00)    -2.874   1.058
    2p(0.00)    -1.126   1.058
    *s          24.338   1.058

  Using partial waves for Li as LCAO basis

Reference energy: -196157.275402

Spin-polarized calculation.
Magnetic moment: 0.000000

Convergence criteria:
  Maximum total energy change: 0.0005 eV / electron
  Maximum integral of absolute density change: 0.0001 electrons
  Maximum integral of absolute eigenstate change: 4e-08 eV^2
  Maximum change in atomic force: 1e-06 eV / Ang
  Maximum number of iterations: 333

Symmetries present (total): 1

  ( 1  0  0)
  ( 0  1  0)
  ( 0  0  1)

144 k-points: 6 x 6 x 4 Monkhorst-Pack grid
144 k-points in the irreducible part of the Brillouin zone
       k-points in crystal coordinates                weights
   0:    -0.41666667   -0.41666667   -0.37500000          1/144
   1:    -0.41666667   -0.41666667   -0.12500000          1/144
   2:    -0.41666667   -0.41666667    0.12500000          1/144
   3:    -0.41666667   -0.41666667    0.37500000          1/144
   4:    -0.41666667   -0.25000000   -0.37500000          1/144
   5:    -0.41666667   -0.25000000   -0.12500000          1/144
   6:    -0.41666667   -0.25000000    0.12500000          1/144
   7:    -0.41666667   -0.25000000    0.37500000          1/144
   8:    -0.41666667   -0.08333333   -0.37500000          1/144
   9:    -0.41666667   -0.08333333   -0.12500000          1/144
          ...
 143:     0.41666667    0.41666667    0.37500000          1/144

Wave functions: Plane wave expansion
  Cutoff energy: 600.000 eV
  Number of coefficients (min, max): 9132, 9161
  Pulay-stress correction: 0.000000 eV/Ang^3 (de/decut=0.000000)
  Using FFTW library
  ScaLapack parameters: grid=1x1, blocksize=None
  Wavefunction extrapolation:
    Improved wavefunction reuse through dual PAW basis

  Fermi-Dirac: width=0.0010 eV

Eigensolver
   Davidson(niter=2, smin=None, normalize=True)

Densities:
  Coarse grid: 60*35*27 grid
  Fine grid: 120*70*54 grid
  Total Charge: 0.000000

Density mixing:
  Method: difference
  Backend: pulay
  Linear mixing parameter: 0.05
  Mixing with 5 old densities
  Damping of long wave oscillations: 50

Hamiltonian:
  XC and Coulomb potentials evaluated on a 120*70*54 grid
  Using the LDA Exchange-Correlation functional

Total number of cores used: 64
Parallelization over k-points: 16
Domain decomposition: 2 x 2 x 1

Number of atoms: 28
Number of atomic orbitals: 148
Number of bands in calculation: 112
Number of valence electrons: 180
Bands to converge: occupied

... initialized

Initializing position-dependent things.

Density initialized from atomic densities
Creating initial wave functions:
  112 bands from LCAO basis set

               O     O  P  O
            PO           OMn     O
                  O          MO
            O        Li O
             Mn  On          OP
         O         Li O
         Li     O P         O
       Li

Positions:
   0 O     -1.280122   -2.495595   -1.112331    ( 0.0000,  0.0000,  0.0000)
   1 O     -3.023238    2.918858    1.191723    ( 0.0000,  0.0000,  0.0000)
   2 O      1.997451    0.467212    1.441442    ( 0.0000,  0.0000,  0.0000)
   3 O      3.740343   -0.043905   -0.862614    ( 0.0000,  0.0000,  0.0000)
   4 O      1.997419    2.918835    1.441465    ( 0.0000,  0.0000,  0.0000)
   5 O      3.740372   -2.495531   -0.862587    ( 0.0000,  0.0000,  0.0000)
   6 O     -1.280154   -0.043891   -1.112309    ( 0.0000,  0.0000,  0.0000)
   7 O     -3.023210    0.467136    1.191750    ( 0.0000,  0.0000,  0.0000)
   8 O     -4.147405   -1.269737   -0.856207    ( 0.0000,  0.0000,  0.0000)
   9 O     -0.155894    1.692986    1.447725    ( 0.0000,  0.0000,  0.0000)
  10 O      4.864578    1.693016    1.185324    ( 0.0000,  0.0000,  0.0000)
  11 O      0.873163   -1.269706   -1.118625    ( 0.0000,  0.0000,  0.0000)
  12 Mn    -2.437108   -1.269902    0.302197    ( 0.0000,  0.0000,  1.0000)
  13 Mn    -1.866187    1.693156   -2.001927    ( 0.0000,  0.0000, -1.0000)
  14 Mn     3.154299    1.693181    0.026917    ( 0.0000,  0.0000, -1.0000)
  15 Mn     2.583444   -1.269877    2.331074    ( 0.0000,  0.0000,  1.0000)
  16 P     -0.543052   -1.269720   -1.734187    ( 0.0000,  0.0000,  0.0000)
  17 P     -3.760282    1.692974    0.569859    ( 0.0000,  0.0000,  0.0000)
  18 P      1.260300    1.693000    2.063344    ( 0.0000,  0.0000,  0.0000)
  19 P      4.477470   -1.269695   -0.240696    ( 0.0000,  0.0000,  0.0000)
  20 O     -0.544413   -1.269738    1.348523    ( 0.0000,  0.0000,  0.0000)
  21 O     -3.758895    1.692992   -0.955558    ( 0.0000,  0.0000,  0.0000)
  22 O      1.261690    1.693018   -1.019367    ( 0.0000,  0.0000,  0.0000)
  23 O      4.476045   -1.269713    1.284716    ( 0.0000,  0.0000,  0.0000)
  24 Li    -4.662027   -2.751322   -2.149440    ( 0.0000,  0.0000,  0.0000)
  25 Li     0.358703   -2.751277    0.164614    ( 0.0000,  0.0000,  0.0000)
  26 Li    -4.662011    0.211617   -2.139439    ( 0.0000,  0.0000,  0.0000)
  27 Li     0.358720    0.211628    0.164615    ( 0.0000,  0.0000,  0.0000)

Unit cell:
           periodic     x           y           z      points  spacing
  1. axis:    yes   10.041096    0.000054   -0.000022    60     0.1674
  2. axis:    yes    0.000032    5.925857    0.000001    35     0.1693
  3. axis:    yes   -0.000010    0.000001    4.608134    27     0.1707

  Lengths:  10.041096   5.925857   4.608134
  Angles:   89.999974  90.000250  89.999381

Effective grid spacing dv^(1/3) = 0.1691

                     log10-error:           total        iterations:
           time      wfs    density  force  energy       poisson  magmom
iter:   1  04:30:14                       -233.730194             +0.0000
iter:   2  04:30:34  -0.47  -0.95         -231.549929             +0.0015
iter:   3  04:30:54  -0.61  -1.00         -220.798772             +0.0015
iter:   4  04:31:13  -1.19  -1.31         -220.818076             +0.3171
iter:   5  04:31:33  -2.07  -1.40         -222.941040             +0.1507
iter:   6  04:31:53  -2.07  -1.38         -224.965378             +0.3928
iter:   7  04:32:13  -2.01  -1.45         -223.423615             +0.1711
iter:   8  04:32:32  -2.34  -1.61         -224.494348             +0.1377
iter:   9  04:32:52  -2.58  -1.92         -225.958486             +0.3586
iter:  10  04:33:12  -2.22  -1.97         -226.442499             +0.1612
iter:  11  04:33:31  -2.05  -2.05         -226.410691             +0.0491
iter:  12  04:33:51  -3.36  -2.22         -226.334713             +0.0373
iter:  13  04:34:11  -2.13  -2.26         -226.242282             +0.0059
iter:  14  04:34:31  -2.74  -2.50         -226.198243             +0.0075
iter:  15  04:34:50  -3.29  -2.64         -226.212485             +0.0023
iter:  16  04:35:10  -3.51  -2.72         -226.180444             +0.0008
iter:  17  04:35:30  -3.97  -2.84         -226.177139             +0.0005
iter:  18  04:35:49  -3.85  -3.17         -226.176428             +0.0002
iter:  19  04:36:09  -4.82  -3.46         -226.172839             +0.0006
iter:  20  04:36:28  -4.86  -3.55         -226.175620             +0.0000
iter:  21  04:36:48  -5.54  -3.69         -226.175382             +0.0000
iter:  22  04:37:08  -5.69  -3.74         -226.175367             +0.0000
iter:  23  04:37:27  -6.56  -3.79         -226.175320             +0.0000
iter:  24  04:37:47  -5.43  -3.83         -226.175231             +0.0000
iter:  25  04:38:07  -6.17  -4.12         -226.175234             +0.0000
iter:  26  04:38:26  -6.50  -4.21         -226.175220             +0.0000
iter:  27  04:38:46  -7.09  -4.36         -226.175217             +0.0000
iter:  28  04:39:06  -7.24  -4.38         -226.175220             -0.0000
iter:  29  04:39:30  -7.89  -4.47         -226.175219             +0.0000
iter:  30  04:39:50  -6.98  -4.50         -226.175217             +0.0000
iter:  31  04:40:14  -8.17  -4.75    -2.65-226.175216             +0.0000
iter:  32  04:40:38  -7.76  -4.80    -2.87-226.175215             +0.0000
iter:  33  04:41:02  -8.33  -4.87    -3.14-226.175215             +0.0000
iter:  34  04:41:27  -8.10  -4.93    -2.62-226.175215             +0.0000
iter:  35  04:41:51  -8.52  -5.23    -3.11-226.175215             +0.0000
iter:  36  04:42:15  -9.06  -5.48    -3.67-226.175215             +0.0000
iter:  37  04:42:40  -9.44  -5.49    -3.32-226.175215             +0.0000
iter:  38  04:43:04  -9.24  -5.61    -3.50-226.175215             +0.0000
iter:  39  04:43:28  -9.47  -5.64    -3.74-226.175215             +0.0000
iter:  40  04:43:53 -10.36  -5.79    -4.20-226.175215             +0.0000
iter:  41  04:44:17 -10.93  -5.85    -3.83-226.175215             -0.0000
iter:  42  04:44:41 -10.71  -5.89    -3.77-226.175215             -0.0000
iter:  43  04:45:06 -10.74  -5.97    -4.26-226.175215             -0.0000
iter:  44  04:45:30 -10.64  -6.00    -4.25-226.175215             -0.0000
iter:  45  04:45:54 -11.17  -6.05    -4.49-226.175215             -0.0000
iter:  46  04:46:18 -10.63  -6.13    -4.16-226.175215             -0.0000
iter:  47  04:46:43 -11.82  -6.27    -4.87-226.175215             -0.0000
iter:  48  04:47:07 -11.10  -6.27    -4.23-226.175215             -0.0000
iter:  49  04:47:31 -10.87  -6.35    -4.55-226.175215             -0.0000
iter:  50  04:47:56 -12.14  -6.46    -5.02-226.175215             -0.0000
iter:  51  04:48:20 -11.43  -6.49    -4.40-226.175215             -0.0000
iter:  52  04:48:44 -11.18  -6.57    -4.36-226.175215             -0.0000
iter:  53  04:49:09 -11.10  -6.79    -4.87-226.175215             -0.0000
iter:  54  04:49:33 -12.23  -6.93    -5.26-226.175215             -0.0000
iter:  55  04:49:57 -11.75  -6.98    -4.71-226.175215             -0.0000
iter:  56  04:50:21 -12.38  -7.25    -5.34-226.175215             -0.0000
iter:  57  04:50:46 -13.50  -7.31    -6.21-226.175215             -0.0000

Converged after 57 iterations.

Dipole moment: (18.327217, -2.307365, -4.529853) |e|*Ang

Total magnetic moment: (0.000000, 0.000000, -0.000000)
Local magnetic moments:
   0 O  ( 0.000000,  0.000000, -0.001810)
   1 O  ( 0.000000,  0.000000,  0.001813)
   2 O  ( 0.000000,  0.000000,  0.001810)
   3 O  ( 0.000000,  0.000000, -0.001815)
   4 O  ( 0.000000,  0.000000,  0.001803)
   5 O  ( 0.000000,  0.000000, -0.001800)
   6 O  ( 0.000000,  0.000000, -0.001814)
   7 O  ( 0.000000,  0.000000,  0.001808)
   8 O  ( 0.000000,  0.000000,  0.031142)
   9 O  ( 0.000000,  0.000000, -0.031094)
  10 O  ( 0.000000,  0.000000, -0.031051)
  11 O  ( 0.000000,  0.000000,  0.031099)
  12 Mn ( 0.000000,  0.000000,  4.395755)
  13 Mn ( 0.000000,  0.000000, -4.395814)
  14 Mn ( 0.000000,  0.000000, -4.395747)
  15 Mn ( 0.000000,  0.000000,  4.395722)
  16 P  ( 0.000000,  0.000000,  0.000866)
  17 P  ( 0.000000,  0.000000, -0.000866)
  18 P  ( 0.000000,  0.000000, -0.000871)
  19 P  ( 0.000000,  0.000000,  0.000869)
  20 O  ( 0.000000,  0.000000,  0.028411)
  21 O  ( 0.000000,  0.000000, -0.028435)
  22 O  ( 0.000000,  0.000000, -0.028426)
  23 O  ( 0.000000,  0.000000,  0.028400)
  24 Li ( 0.000000,  0.000000, -0.000012)
  25 Li ( 0.000000,  0.000000,  0.000000)
  26 Li ( 0.000000,  0.000000,  0.000002)
  27 Li ( 0.000000,  0.000000,  0.000000)

Energy contributions relative to reference atoms: (reference = -196157.275402)

Kinetic:       +277.625774
Potential:     -240.967934
External:        +0.000000
XC:            -264.721495
Entropy (-ST):   -0.000000
Local:           +1.888441
Free energy:   -226.175215
Extrapolated:  -226.175215

Spin contamination: 9.455315 electrons
Showing only first 2 kpts
                      Up                     Down
 Kpt  Band  Eigenvalues  Occupancy  Eigenvalues  Occupancy
  0    88      6.53053    0.00694      6.53047    0.00694
  0    89      6.56414    0.00694      6.56404    0.00694
  0    90      8.42683    0.00000      8.42667    0.00000
  0    91      8.44843    0.00000      8.44827    0.00000

  1    88      6.56896    0.00694      6.56892    0.00694
  1    89      6.59612    0.00694      6.59596    0.00694
  1    90      8.38307    0.00000      8.38310    0.00000
  1    91      8.40520    0.00000      8.40527    0.00000

Fermi level: 7.51468

Gap: 1.699 eV
Transition (v -> c):
  (s=0, k=94, n=89, [0.08, 0.42, 0.12]) -> (s=0, k=81, n=90, [0.08, -0.08, -0.12])
Writing to born-0.01-24z-.gpw (mode='all')