User:   madkru@i013.nifl.fysik.dtu.dk
Date:   Sun Mar 21 21:51:28 2021
Arch:   x86_64
Pid:    27943
Python: 3.7.4
gpaw:   /home/niflheim/madkru/venv_folder/gpaw/gpaw (d0d1ca1c71)
_gpaw:  /home/niflheim/madkru/venv_folder/gpaw/build/lib.linux-x86_64-ivybridge-3.7/
        _gpaw.cpython-37m-x86_64-linux-gnu.so (4fd39e8b1e)
ase:    /home/niflheim/madkru/venv_folder/ase/ase (version 3.21.0b1-7e6c206a91)
numpy:  /home/niflheim/madkru/venv_folder/lib/python3.7/site-packages/numpy (version 1.19.4)
scipy:  /home/niflheim/madkru/venv_folder/lib/python3.7/site-packages/scipy (version 1.5.4)
units:  Angstrom and eV
cores: 32
OMP_NUM_THREADS: 1

Input parameters:
  convergence: {bands: occupied,
                density: 0.0001,
                eigenstates: 4e-08,
                energy: 0.0005,
                forces: 1e-06}
  kpts: [6 6 4]
  mode: {ecut: 600.0,
         gammacentered: False,
         name: pw}
  occupations: {fixmagmom: False,
                name: fermi-dirac,
                width: 0.001}
  symmetry: {point_group: False,
             time_reversal: False}

System changes: positions, numbers, cell, pbc, initial_charges, initial_magmoms

Initialize ...

O-setup:
  name: Oxygen
  id: 9b9d51c344dea68c822856295a461509
  Z: 8.0
  valence: 6
  core: 2
  charge: 0.0
  file: /home/modules/software/GPAW-setups/0.9.20000/O.LDA.gz
  compensation charges: gauss, rc=0.21, lmax=2
  cutoffs: 1.17(filt), 0.83(core),
  valence states:
                energy  radius
    2s(2.00)   -23.752   0.688
    2p(4.00)    -9.195   0.598
    *s           3.459   0.688
    *p          18.016   0.598
    *d           0.000   0.619

  Using partial waves for O as LCAO basis

Mn-setup:
  name: Manganese
  id: 0d715a8018be061a6e9ea6f2d364ac92
  Z: 25.0
  valence: 15
  core: 10
  charge: 0.0
  file: /home/modules/software/GPAW-setups/0.9.20000/Mn.LDA.gz
  compensation charges: gauss, rc=0.38, lmax=2
  cutoffs: 2.14(filt), 0.86(core),
  valence states:
                energy  radius
    3s(2.00)   -85.387   1.275
    4s(2.00)    -5.282   1.275
    3p(6.00)   -54.493   1.281
    4p(0.00)    -1.471   1.281
    3d(5.00)    -7.009   1.138
    *d          20.203   1.138

[...]

P-setup:
  name: Phosphorus
  id: a5561c299094968922a179ab894d2e2d
  Z: 15.0
  valence: 5
  core: 10
  charge: 0.0
  file: /home/modules/software/GPAW-setups/0.9.20000/P.LDA.gz
  compensation charges: gauss, rc=0.30, lmax=2
  cutoffs: 1.69(filt), 1.81(core),
  valence states:
                energy  radius
    3s(2.00)   -14.015   0.953
    3p(3.00)    -5.596   0.953
    *s          13.197   0.953
    *p          21.615   0.953
    *d           0.000   0.953

[...]

Li-setup:
  name: Lithium
  id: b73562207f97a71b6967473b66fe8b65
  Z: 3.0
  valence: 1
  core: 2
  charge: 0.0
  file: /home/modules/software/GPAW-setups/0.9.20000/Li.LDA.gz
  compensation charges: gauss, rc=0.33, lmax=2
  cutoffs: 1.91(filt), 2.55(core),
  valence states:
                energy  radius
    2s(1.00)    -2.874   1.058
    2p(0.00)    -1.126   1.058
    *s          24.338   1.058

  Using partial waves for Li as LCAO basis

Reference energy: -196157.275402

Spin-polarized calculation.
Magnetic moment: 0.000000

Convergence criteria:
  Maximum total energy change: 0.0005 eV / electron
  Maximum integral of absolute density change: 0.0001 electrons
  Maximum integral of absolute eigenstate change: 4e-08 eV^2
  Maximum change in atomic force: 1e-06 eV / Ang
  Maximum number of iterations: 333

Symmetries present (total): 1

  ( 1  0  0)
  ( 0  1  0)
  ( 0  0  1)

144 k-points: 6 x 6 x 4 Monkhorst-Pack grid
144 k-points in the irreducible part of the Brillouin zone
       k-points in crystal coordinates                weights
   0:    -0.41666667   -0.41666667   -0.37500000          1/144
   1:    -0.41666667   -0.41666667   -0.12500000          1/144
   2:    -0.41666667   -0.41666667    0.12500000          1/144
   3:    -0.41666667   -0.41666667    0.37500000          1/144
   4:    -0.41666667   -0.25000000   -0.37500000          1/144
   5:    -0.41666667   -0.25000000   -0.12500000          1/144
   6:    -0.41666667   -0.25000000    0.12500000          1/144
   7:    -0.41666667   -0.25000000    0.37500000          1/144
   8:    -0.41666667   -0.08333333   -0.37500000          1/144
   9:    -0.41666667   -0.08333333   -0.12500000          1/144
          ...
 143:     0.41666667    0.41666667    0.37500000          1/144

Wave functions: Plane wave expansion
  Cutoff energy: 600.000 eV
  Number of coefficients (min, max): 9132, 9161
  Pulay-stress correction: 0.000000 eV/Ang^3 (de/decut=0.000000)
  Using FFTW library
  ScaLapack parameters: grid=1x1, blocksize=None
  Wavefunction extrapolation:
    Improved wavefunction reuse through dual PAW basis

  Fermi-Dirac: width=0.0010 eV

Eigensolver
   Davidson(niter=2, smin=None, normalize=True)

Densities:
  Coarse grid: 60*35*27 grid
  Fine grid: 120*70*54 grid
  Total Charge: 0.000000

Density mixing:
  Method: difference
  Backend: pulay
  Linear mixing parameter: 0.05
  Mixing with 5 old densities
  Damping of long wave oscillations: 50

Hamiltonian:
  XC and Coulomb potentials evaluated on a 120*70*54 grid
  Using the LDA Exchange-Correlation functional

Total number of cores used: 32
Parallelization over k-points: 16
Domain decomposition: 2 x 1 x 1

Number of atoms: 28
Number of atomic orbitals: 148
Number of bands in calculation: 112
Number of valence electrons: 180
Bands to converge: occupied

... initialized

Initializing position-dependent things.

Density initialized from atomic densities
Creating initial wave functions:
  112 bands from LCAO basis set

               O     O  P  O
            PO           OMn     O
                  O          MO
            O        Li O
             Mn  Mn          OP
         O       O Li O
         Li     O P         O
       Li

Positions:
   0 O     -1.280122   -2.495595   -1.112331    ( 0.0000,  0.0000,  0.0000)
   1 O     -3.023238    2.918858    1.191723    ( 0.0000,  0.0000,  0.0000)
   2 O      1.997451    0.467212    1.441442    ( 0.0000,  0.0000,  0.0000)
   3 O      3.740343   -0.043905   -0.852614    ( 0.0000,  0.0000,  0.0000)
   4 O      1.997419    2.918835    1.441465    ( 0.0000,  0.0000,  0.0000)
   5 O      3.740372   -2.495531   -0.862587    ( 0.0000,  0.0000,  0.0000)
   6 O     -1.280154   -0.043891   -1.112309    ( 0.0000,  0.0000,  0.0000)
   7 O     -3.023210    0.467136    1.191750    ( 0.0000,  0.0000,  0.0000)
   8 O     -4.147405   -1.269737   -0.856207    ( 0.0000,  0.0000,  0.0000)
   9 O     -0.155894    1.692986    1.447725    ( 0.0000,  0.0000,  0.0000)
  10 O      4.864578    1.693016    1.185324    ( 0.0000,  0.0000,  0.0000)
  11 O      0.873163   -1.269706   -1.118625    ( 0.0000,  0.0000,  0.0000)
  12 Mn    -2.437108   -1.269902    0.302197    ( 0.0000,  0.0000,  1.0000)
  13 Mn    -1.866187    1.693156   -2.001927    ( 0.0000,  0.0000, -1.0000)
  14 Mn     3.154299    1.693181    0.026917    ( 0.0000,  0.0000, -1.0000)
  15 Mn     2.583444   -1.269877    2.331074    ( 0.0000,  0.0000,  1.0000)
  16 P     -0.543052   -1.269720   -1.734187    ( 0.0000,  0.0000,  0.0000)
  17 P     -3.760282    1.692974    0.569859    ( 0.0000,  0.0000,  0.0000)
  18 P      1.260300    1.693000    2.063344    ( 0.0000,  0.0000,  0.0000)
  19 P      4.477470   -1.269695   -0.240696    ( 0.0000,  0.0000,  0.0000)
  20 O     -0.544413   -1.269738    1.348523    ( 0.0000,  0.0000,  0.0000)
  21 O     -3.758895    1.692992   -0.955558    ( 0.0000,  0.0000,  0.0000)
  22 O      1.261690    1.693018   -1.019367    ( 0.0000,  0.0000,  0.0000)
  23 O      4.476045   -1.269713    1.284716    ( 0.0000,  0.0000,  0.0000)
  24 Li    -4.662027   -2.751322   -2.139440    ( 0.0000,  0.0000,  0.0000)
  25 Li     0.358703   -2.751277    0.164614    ( 0.0000,  0.0000,  0.0000)
  26 Li    -4.662011    0.211617   -2.139439    ( 0.0000,  0.0000,  0.0000)
  27 Li     0.358720    0.211628    0.164615    ( 0.0000,  0.0000,  0.0000)

Unit cell:
           periodic     x           y           z      points  spacing
  1. axis:    yes   10.041096    0.000054   -0.000022    60     0.1674
  2. axis:    yes    0.000032    5.925857    0.000001    35     0.1693
  3. axis:    yes   -0.000010    0.000001    4.608134    27     0.1707

  Lengths:  10.041096   5.925857   4.608134
  Angles:   89.999974  90.000250  89.999381

Effective grid spacing dv^(1/3) = 0.1691

                     log10-error:           total        iterations:
           time      wfs    density  force  energy       poisson  magmom
iter:   1  21:54:31                       -233.725016             +0.0000
iter:   2  21:55:07  -0.47  -0.95         -231.551783             +0.0027
iter:   3  21:55:44  -0.61  -1.00         -220.799186             +0.0028
iter:   4  21:56:20  -1.17  -1.31         -220.764646             +0.0550
iter:   5  21:56:56  -2.12  -1.40         -223.263354             +0.0036
iter:   6  21:57:32  -2.30  -1.37         -222.792783             +0.0486
iter:   7  21:58:08  -2.06  -1.55         -222.617015             +0.0018
iter:   8  21:58:44  -2.24  -1.86         -225.820835             +0.0139
iter:   9  21:59:20  -2.06  -2.04         -226.382995             +0.0068
iter:  10  21:59:57  -2.33  -2.14         -226.409317             +0.0023
iter:  11  22:00:33  -3.11  -2.29         -226.364476             +0.0007
iter:  12  22:01:09  -2.46  -2.36         -226.196108             +0.0000
iter:  13  22:01:45  -3.11  -2.46         -226.183331             +0.0002
iter:  14  22:02:21  -3.99  -2.85         -226.183483             +0.0002
iter:  15  22:02:57  -3.43  -2.90         -226.179604             +0.0001
iter:  16  22:03:33  -4.06  -3.05         -226.177582             +0.0000
iter:  17  22:04:09  -5.03  -3.28         -226.176702             +0.0000
iter:  18  22:04:45  -4.73  -3.29         -226.175525             +0.0000
iter:  19  22:05:21  -5.00  -3.36         -226.175078             +0.0000
iter:  20  22:05:57  -5.10  -3.36         -226.174983             +0.0000
iter:  21  22:06:33  -5.53  -3.53         -226.175019             +0.0000
iter:  22  22:07:09  -5.62  -3.56         -226.175093             -0.0000
iter:  23  22:07:45  -5.00  -3.61         -226.175059             -0.0000
iter:  24  22:08:21  -5.98  -3.92         -226.174906             -0.0000
iter:  25  22:08:57  -6.12  -4.01         -226.174846             +0.0000
iter:  26  22:09:33  -6.77  -4.03         -226.174839             -0.0000
iter:  27  22:10:09  -6.04  -4.07         -226.174830             -0.0000
iter:  28  22:10:46  -6.56  -4.25         -226.174836             -0.0000
iter:  29  22:11:31  -7.52  -4.28         -226.174829             -0.0000
iter:  30  22:12:07  -6.32  -4.36         -226.174820             -0.0000
iter:  31  22:12:43  -7.40  -4.56         -226.174816             -0.0000
iter:  32  22:13:29  -7.68  -4.61    -1.98-226.174815             -0.0000
iter:  33  22:14:14  -7.48  -4.68    -2.61-226.174818             +0.0000
iter:  34  22:15:00  -7.68  -4.91    -2.63-226.174814             -0.0000
iter:  35  22:15:45  -8.26  -5.03    -3.23-226.174814             +0.0000
iter:  36  22:16:30  -8.04  -5.06    -3.15-226.174813             -0.0000
iter:  37  22:17:15  -8.41  -5.28    -3.12-226.174813             -0.0000
iter:  38  22:18:01  -9.35  -5.26    -3.08-226.174813             -0.0000
iter:  39  22:18:46  -8.97  -5.32    -2.99-226.174813             -0.0000
iter:  40  22:19:31  -9.50  -5.38    -3.80-226.174813             +0.0000
iter:  41  22:20:16  -8.66  -5.40    -3.33-226.174813             +0.0000
iter:  42  22:21:02  -9.87  -5.85    -3.59-226.174813             +0.0000
iter:  43  22:21:47 -10.24  -5.90    -4.00-226.174813             +0.0000
iter:  44  22:22:32 -10.31  -5.91    -3.81-226.174813             +0.0000
iter:  45  22:23:18  -9.85  -6.04    -3.75-226.174813             +0.0000
iter:  46  22:24:03 -10.00  -6.15    -3.83-226.174813             +0.0000
iter:  47  22:24:48 -11.12  -6.50    -4.74-226.174813             +0.0000
iter:  48  22:25:33 -11.07  -6.53    -4.52-226.174813             +0.0000
iter:  49  22:26:19 -11.53  -6.60    -4.36-226.174813             +0.0000
iter:  50  22:27:04 -11.87  -6.72    -4.43-226.174813             +0.0000
iter:  51  22:27:49 -11.64  -7.02    -4.46-226.174813             +0.0000
iter:  52  22:28:34 -12.48  -7.10    -4.78-226.174813             +0.0000
iter:  53  22:29:20 -12.51  -7.29    -5.01-226.174813             +0.0000
iter:  54  22:30:05 -12.76  -7.38    -5.41-226.174813             +0.0000
iter:  55  22:30:50 -13.23  -7.46    -5.57-226.174813             +0.0000
iter:  56  22:31:36 -13.90  -7.54    -5.83-226.174813             +0.0000
iter:  57  22:32:21 -13.01  -7.60    -5.24-226.174813             +0.0000
iter:  58  22:33:06 -14.33  -7.82    -6.12-226.174813             +0.0000

Converged after 58 iterations.

Dipole moment: (18.326428, -2.310023, -4.500530) |e|*Ang

Total magnetic moment: (0.000000, 0.000000, 0.000000)
Local magnetic moments:
   0 O  ( 0.000000,  0.000000, -0.001817)
   1 O  ( 0.000000,  0.000000,  0.001795)
   2 O  ( 0.000000,  0.000000,  0.001762)
   3 O  ( 0.000000,  0.000000, -0.002091)
   4 O  ( 0.000000,  0.000000,  0.001946)
   5 O  ( 0.000000,  0.000000, -0.001819)
   6 O  ( 0.000000,  0.000000, -0.001818)
   7 O  ( 0.000000,  0.000000,  0.001803)
   8 O  ( 0.000000,  0.000000,  0.031004)
   9 O  ( 0.000000,  0.000000, -0.031090)
  10 O  ( 0.000000,  0.000000, -0.031151)
  11 O  ( 0.000000,  0.000000,  0.031076)
  12 Mn ( 0.000000,  0.000000,  4.395747)
  13 Mn ( 0.000000,  0.000000, -4.395804)
  14 Mn ( 0.000000,  0.000000, -4.395282)
  15 Mn ( 0.000000,  0.000000,  4.396283)
  16 P  ( 0.000000,  0.000000,  0.000854)
  17 P  ( 0.000000,  0.000000, -0.000872)
  18 P  ( 0.000000,  0.000000, -0.000879)
  19 P  ( 0.000000,  0.000000,  0.000659)
  20 O  ( 0.000000,  0.000000,  0.028413)
  21 O  ( 0.000000,  0.000000, -0.028429)
  22 O  ( 0.000000,  0.000000, -0.028442)
  23 O  ( 0.000000,  0.000000,  0.028422)
  24 Li ( 0.000000,  0.000000, -0.000001)
  25 Li ( 0.000000,  0.000000, -0.000001)
  26 Li ( 0.000000,  0.000000, -0.000007)
  27 Li ( 0.000000,  0.000000,  0.000001)

Energy contributions relative to reference atoms: (reference = -196157.275402)

Kinetic:       +277.876454
Potential:     -241.161262
External:        +0.000000
XC:            -264.777624
Entropy (-ST):   -0.000000
Local:           +1.887620
Free energy:   -226.174813
Extrapolated:  -226.174813

Spin contamination: 9.455466 electrons
Showing only first 2 kpts
                      Up                     Down
 Kpt  Band  Eigenvalues  Occupancy  Eigenvalues  Occupancy
  0    88      6.52763    0.00694      6.53180    0.00694
  0    89      6.56229    0.00694      6.56570    0.00694
  0    90      8.42616    0.00000      8.42433    0.00000
  0    91      8.44785    0.00000      8.44628    0.00000

  1    88      6.56587    0.00694      6.56998    0.00694
  1    89      6.59400    0.00694      6.59746    0.00694
  1    90      8.38275    0.00000      8.38112    0.00000
  1    91      8.40484    0.00000      8.40353    0.00000

Fermi level: 7.65679

Gap: 1.697 eV
Transition (v -> c):
  (s=1, k=69, n=89, [-0.08, 0.42, -0.12]) -> (s=1, k=61, n=90, [-0.08, 0.08, -0.12])
Writing to born-0.01-3z+.gpw (mode='all')