User:   madkru@i008.nifl.fysik.dtu.dk
Date:   Fri Mar 26 02:57:02 2021
Arch:   x86_64
Pid:    26969
Python: 3.7.4
gpaw:   /home/niflheim/madkru/venv_folder/gpaw/gpaw (d224efde0f)
_gpaw:  /home/niflheim/madkru/venv_folder/gpaw/build/lib.linux-x86_64-ivybridge-3.7/
        _gpaw.cpython-37m-x86_64-linux-gnu.so (4fd39e8b1e)
ase:    /home/niflheim/madkru/venv_folder/ase/ase (version 3.21.0b1-4d5a73cb29)
numpy:  /home/niflheim/madkru/venv_folder/lib/python3.7/site-packages/numpy (version 1.19.4)
scipy:  /home/niflheim/madkru/venv_folder/lib/python3.7/site-packages/scipy (version 1.5.4)
units:  Angstrom and eV
cores: 64
OMP_NUM_THREADS: 1

Input parameters:
  convergence: {bands: occupied,
                density: 0.0001,
                eigenstates: 4e-08,
                energy: 0.0005,
                forces: 1e-06}
  kpts: [6 6 4]
  mode: {ecut: 600.0,
         gammacentered: False,
         name: pw}
  occupations: {fixmagmom: False,
                name: fermi-dirac,
                width: 0.001}
  symmetry: {point_group: False,
             time_reversal: False}

System changes: positions, numbers, cell, pbc, initial_charges, initial_magmoms

Initialize ...

O-setup:
  name: Oxygen
  id: 9b9d51c344dea68c822856295a461509
  Z: 8.0
  valence: 6
  core: 2
  charge: 0.0
  file: /home/modules/software/GPAW-setups/0.9.20000/O.LDA.gz
  compensation charges: gauss, rc=0.21, lmax=2
  cutoffs: 1.17(filt), 0.83(core),
  valence states:
                energy  radius
    2s(2.00)   -23.752   0.688
    2p(4.00)    -9.195   0.598
    *s           3.459   0.688
    *p          18.016   0.598
    *d           0.000   0.619

  Using partial waves for O as LCAO basis

Mn-setup:
  name: Manganese
  id: 0d715a8018be061a6e9ea6f2d364ac92
  Z: 25.0
  valence: 15
  core: 10
  charge: 0.0
  file: /home/modules/software/GPAW-setups/0.9.20000/Mn.LDA.gz
  compensation charges: gauss, rc=0.38, lmax=2
  cutoffs: 2.14(filt), 0.86(core),
  valence states:
                energy  radius
    3s(2.00)   -85.387   1.275
    4s(2.00)    -5.282   1.275
    3p(6.00)   -54.493   1.281
    4p(0.00)    -1.471   1.281
    3d(5.00)    -7.009   1.138
    *d          20.203   1.138

[...]

P-setup:
  name: Phosphorus
  id: a5561c299094968922a179ab894d2e2d
  Z: 15.0
  valence: 5
  core: 10
  charge: 0.0
  file: /home/modules/software/GPAW-setups/0.9.20000/P.LDA.gz
  compensation charges: gauss, rc=0.30, lmax=2
  cutoffs: 1.69(filt), 1.81(core),
  valence states:
                energy  radius
    3s(2.00)   -14.015   0.953
    3p(3.00)    -5.596   0.953
    *s          13.197   0.953
    *p          21.615   0.953
    *d           0.000   0.953

[...]

Li-setup:
  name: Lithium
  id: b73562207f97a71b6967473b66fe8b65
  Z: 3.0
  valence: 1
  core: 2
  charge: 0.0
  file: /home/modules/software/GPAW-setups/0.9.20000/Li.LDA.gz
  compensation charges: gauss, rc=0.33, lmax=2
  cutoffs: 1.91(filt), 2.55(core),
  valence states:
                energy  radius
    2s(1.00)    -2.874   1.058
    2p(0.00)    -1.126   1.058
    *s          24.338   1.058

  Using partial waves for Li as LCAO basis

Reference energy: -196157.275402

Spin-polarized calculation.
Magnetic moment: 0.000000

Convergence criteria:
  Maximum total energy change: 0.0005 eV / electron
  Maximum integral of absolute density change: 0.0001 electrons
  Maximum integral of absolute eigenstate change: 4e-08 eV^2
  Maximum change in atomic force: 1e-06 eV / Ang
  Maximum number of iterations: 333

Symmetries present (total): 1

  ( 1  0  0)
  ( 0  1  0)
  ( 0  0  1)

144 k-points: 6 x 6 x 4 Monkhorst-Pack grid
144 k-points in the irreducible part of the Brillouin zone
       k-points in crystal coordinates                weights
   0:    -0.41666667   -0.41666667   -0.37500000          1/144
   1:    -0.41666667   -0.41666667   -0.12500000          1/144
   2:    -0.41666667   -0.41666667    0.12500000          1/144
   3:    -0.41666667   -0.41666667    0.37500000          1/144
   4:    -0.41666667   -0.25000000   -0.37500000          1/144
   5:    -0.41666667   -0.25000000   -0.12500000          1/144
   6:    -0.41666667   -0.25000000    0.12500000          1/144
   7:    -0.41666667   -0.25000000    0.37500000          1/144
   8:    -0.41666667   -0.08333333   -0.37500000          1/144
   9:    -0.41666667   -0.08333333   -0.12500000          1/144
          ...
 143:     0.41666667    0.41666667    0.37500000          1/144

Wave functions: Plane wave expansion
  Cutoff energy: 600.000 eV
  Number of coefficients (min, max): 9132, 9161
  Pulay-stress correction: 0.000000 eV/Ang^3 (de/decut=0.000000)
  Using FFTW library
  ScaLapack parameters: grid=1x1, blocksize=None
  Wavefunction extrapolation:
    Improved wavefunction reuse through dual PAW basis

  Fermi-Dirac: width=0.0010 eV

Eigensolver
   Davidson(niter=2, smin=None, normalize=True)

Densities:
  Coarse grid: 60*35*27 grid
  Fine grid: 120*70*54 grid
  Total Charge: 0.000000

Density mixing:
  Method: difference
  Backend: pulay
  Linear mixing parameter: 0.05
  Mixing with 5 old densities
  Damping of long wave oscillations: 50

Hamiltonian:
  XC and Coulomb potentials evaluated on a 120*70*54 grid
  Using the LDA Exchange-Correlation functional

Total number of cores used: 64
Parallelization over k-points: 16
Domain decomposition: 2 x 2 x 1

Number of atoms: 28
Number of atomic orbitals: 148
Number of bands in calculation: 112
Number of valence electrons: 180
Bands to converge: occupied

... initialized

Initializing position-dependent things.

Density initialized from atomic densities
Creating initial wave functions:
  112 bands from LCAO basis set

               O     O  P  O
            PO           OMn     O
                  O          MO
            O        Li O
             Mn  Mn          OP
         O       O Li O
         Li     O P         O
       Li

Positions:
   0 O     -1.280122   -2.495595   -1.112331    ( 0.0000,  0.0000,  0.0000)
   1 O     -3.023238    2.918858    1.191723    ( 0.0000,  0.0000,  0.0000)
   2 O      1.997451    0.467212    1.441442    ( 0.0000,  0.0000,  0.0000)
   3 O      3.740343   -0.043905   -0.862614    ( 0.0000,  0.0000,  0.0000)
   4 O      1.997419    2.918835    1.441465    ( 0.0000,  0.0000,  0.0000)
   5 O      3.740372   -2.495531   -0.862587    ( 0.0000,  0.0000,  0.0000)
   6 O     -1.280154   -0.043891   -1.112309    ( 0.0000,  0.0000,  0.0000)
   7 O     -3.023210    0.467136    1.191750    ( 0.0000,  0.0000,  0.0000)
   8 O     -4.147405   -1.269737   -0.856207    ( 0.0000,  0.0000,  0.0000)
   9 O     -0.155894    1.692986    1.447725    ( 0.0000,  0.0000,  0.0000)
  10 O      4.864578    1.693016    1.185324    ( 0.0000,  0.0000,  0.0000)
  11 O      0.873163   -1.269706   -1.118625    ( 0.0000,  0.0000,  0.0000)
  12 Mn    -2.437108   -1.269902    0.302197    ( 0.0000,  0.0000,  1.0000)
  13 Mn    -1.866187    1.693156   -2.001927    ( 0.0000,  0.0000, -1.0000)
  14 Mn     3.154299    1.693181    0.026917    ( 0.0000,  0.0000, -1.0000)
  15 Mn     2.583444   -1.269877    2.331074    ( 0.0000,  0.0000,  1.0000)
  16 P     -0.543052   -1.269720   -1.734187    ( 0.0000,  0.0000,  0.0000)
  17 P     -3.760282    1.692974    0.569859    ( 0.0000,  0.0000,  0.0000)
  18 P      1.260300    1.693000    2.063344    ( 0.0000,  0.0000,  0.0000)
  19 P      4.477470   -1.269695   -0.240696    ( 0.0000,  0.0000,  0.0000)
  20 O     -0.544413   -1.269738    1.348523    ( 0.0000,  0.0000,  0.0000)
  21 O     -3.758895    1.692992   -0.955558    ( 0.0000,  0.0000,  0.0000)
  22 O      1.261690    1.693018   -1.019367    ( 0.0000,  0.0000,  0.0000)
  23 O      4.476045   -1.269713    1.284716    ( 0.0000,  0.0000,  0.0000)
  24 Li    -4.652027   -2.751322   -2.139440    ( 0.0000,  0.0000,  0.0000)
  25 Li     0.358703   -2.751277    0.164614    ( 0.0000,  0.0000,  0.0000)
  26 Li    -4.662011    0.211617   -2.139439    ( 0.0000,  0.0000,  0.0000)
  27 Li     0.358720    0.211628    0.164615    ( 0.0000,  0.0000,  0.0000)

Unit cell:
           periodic     x           y           z      points  spacing
  1. axis:    yes   10.041096    0.000054   -0.000022    60     0.1674
  2. axis:    yes    0.000032    5.925857    0.000001    35     0.1693
  3. axis:    yes   -0.000010    0.000001    4.608134    27     0.1707

  Lengths:  10.041096   5.925857   4.608134
  Angles:   89.999974  90.000250  89.999381

Effective grid spacing dv^(1/3) = 0.1691

                     log10-error:           total        iterations:
           time      wfs    density  force  energy       poisson  magmom
iter:   1  02:58:39                       -233.730322             +0.0000
iter:   2  02:58:59  -0.47  -0.95         -231.550029             +0.0040
iter:   3  02:59:18  -0.61  -1.00         -220.820404             +0.0042
iter:   4  02:59:38  -1.21  -1.31         -221.315391             +0.4202
iter:   5  02:59:58  -2.15  -1.38         -222.514437             +0.2411
iter:   6  03:00:18  -2.27  -1.38         -223.950053             +0.0345
iter:   7  03:00:37  -2.19  -1.52         -224.242361             -0.4093
iter:   8  03:00:57  -2.61  -1.66         -225.774459             -0.9269
iter:   9  03:01:17  -2.38  -1.92         -226.402826             -0.0402
iter:  10  03:01:37  -2.15  -2.07         -226.268749             -0.0230
iter:  11  03:01:56  -2.69  -2.28         -226.307011             -0.0088
iter:  12  03:02:16  -2.38  -2.34         -226.240789             -0.0069
iter:  13  03:02:35  -3.82  -2.84         -226.203315             -0.0024
iter:  14  03:02:55  -3.05  -2.91         -226.188694             +0.0005
iter:  15  03:03:15  -3.74  -3.03         -226.178334             -0.0002
iter:  16  03:03:35  -4.47  -3.31         -226.176915             -0.0001
iter:  17  03:03:54  -4.17  -3.37         -226.176313             -0.0000
iter:  18  03:04:14  -4.55  -3.47         -226.175530             -0.0000
iter:  19  03:04:34  -5.07  -3.78         -226.175593             -0.0000
iter:  20  03:04:53  -4.88  -3.81         -226.175415             -0.0000
iter:  21  03:05:13  -5.66  -3.87         -226.175304             -0.0000
iter:  22  03:05:33  -6.95  -4.25         -226.175303             -0.0000
iter:  23  03:05:52  -6.09  -4.28         -226.175321             +0.0000
iter:  24  03:06:12  -6.48  -4.32         -226.175297             -0.0000
iter:  25  03:06:36  -7.50  -4.75         -226.175297             -0.0000
iter:  26  03:07:01  -8.00  -4.82    -2.47-226.175297             -0.0000
iter:  27  03:07:25  -8.62  -5.22    -3.38-226.175297             -0.0000
iter:  28  03:07:50  -8.45  -5.23    -2.99-226.175297             -0.0000
iter:  29  03:08:14  -9.27  -5.34    -3.34-226.175297             -0.0000
iter:  30  03:08:38  -9.02  -5.43    -3.51-226.175297             -0.0000
iter:  31  03:09:03  -9.11  -5.53    -3.53-226.175297             -0.0000
iter:  32  03:09:27  -9.18  -5.61    -3.72-226.175297             -0.0000
iter:  33  03:09:51 -10.21  -5.67    -4.17-226.175297             -0.0000
iter:  34  03:10:16  -9.53  -5.70    -3.58-226.175297             +0.0000
iter:  35  03:10:40 -10.42  -5.82    -3.91-226.175297             -0.0000
iter:  36  03:11:04 -10.30  -5.91    -3.77-226.175297             -0.0000
iter:  37  03:11:29 -10.73  -6.24    -4.22-226.175297             -0.0000
iter:  38  03:11:53 -10.18  -6.38    -4.16-226.175297             -0.0000
iter:  39  03:12:17 -11.15  -6.59    -4.55-226.175297             -0.0000
iter:  40  03:12:42 -12.09  -6.67    -4.99-226.175297             -0.0000
iter:  41  03:13:06 -11.14  -6.71    -4.38-226.175297             -0.0000
iter:  42  03:13:30 -11.91  -7.00    -4.56-226.175297             -0.0000
iter:  43  03:13:55 -13.16  -7.12    -5.59-226.175297             -0.0000
iter:  44  03:14:19 -13.45  -7.11    -5.70-226.175297             -0.0000
iter:  45  03:14:43 -12.19  -7.09    -5.00-226.175297             -0.0000
iter:  46  03:15:08 -13.22  -7.17    -5.58-226.175297             -0.0000
iter:  47  03:15:32 -13.26  -7.11    -5.32-226.175297             -0.0000
iter:  48  03:15:56 -12.80  -7.21    -5.05-226.175297             -0.0000
iter:  49  03:16:21 -11.82  -7.28    -5.07-226.175297             -0.0000
iter:  50  03:16:45 -12.96  -7.40    -5.67-226.175297             -0.0000
iter:  51  03:17:10 -12.39  -7.43    -5.00-226.175297             -0.0000
iter:  52  03:17:34 -13.09  -7.71    -5.54-226.175297             -0.0000
iter:  53  03:17:58 -13.66  -7.89    -5.54-226.175297             -0.0000
iter:  54  03:18:22 -13.80  -8.07    -5.84-226.175297             -0.0000
iter:  55  03:18:47 -14.80  -8.33    -6.26-226.175297             -0.0000

Converged after 55 iterations.

Dipole moment: (18.330083, -2.307535, -4.524047) |e|*Ang

Total magnetic moment: (0.000000, 0.000000, -0.000000)
Local magnetic moments:
   0 O  ( 0.000000,  0.000000, -0.001811)
   1 O  ( 0.000000,  0.000000,  0.001783)
   2 O  ( 0.000000,  0.000000,  0.001807)
   3 O  ( 0.000000,  0.000000, -0.001811)
   4 O  ( 0.000000,  0.000000,  0.001802)
   5 O  ( 0.000000,  0.000000, -0.001829)
   6 O  ( 0.000000,  0.000000, -0.001817)
   7 O  ( 0.000000,  0.000000,  0.001812)
   8 O  ( 0.000000,  0.000000,  0.031144)
   9 O  ( 0.000000,  0.000000, -0.031138)
  10 O  ( 0.000000,  0.000000, -0.031050)
  11 O  ( 0.000000,  0.000000,  0.031055)
  12 Mn ( 0.000000,  0.000000,  4.395709)
  13 Mn ( 0.000000,  0.000000, -4.395711)
  14 Mn ( 0.000000,  0.000000, -4.395792)
  15 Mn ( 0.000000,  0.000000,  4.395822)
  16 P  ( 0.000000,  0.000000,  0.000873)
  17 P  ( 0.000000,  0.000000, -0.000878)
  18 P  ( 0.000000,  0.000000, -0.000864)
  19 P  ( 0.000000,  0.000000,  0.000856)
  20 O  ( 0.000000,  0.000000,  0.028426)
  21 O  ( 0.000000,  0.000000, -0.028427)
  22 O  ( 0.000000,  0.000000, -0.028411)
  23 O  ( 0.000000,  0.000000,  0.028408)
  24 Li ( 0.000000,  0.000000,  0.000027)
  25 Li ( 0.000000,  0.000000,  0.000000)
  26 Li ( 0.000000,  0.000000, -0.000001)
  27 Li ( 0.000000,  0.000000,  0.000000)

Energy contributions relative to reference atoms: (reference = -196157.275402)

Kinetic:       +277.624597
Potential:     -240.967031
External:        +0.000000
XC:            -264.721305
Entropy (-ST):   -0.000000
Local:           +1.888441
Free energy:   -226.175297
Extrapolated:  -226.175297

Spin contamination: 9.455313 electrons
Showing only first 2 kpts
                      Up                     Down
 Kpt  Band  Eigenvalues  Occupancy  Eigenvalues  Occupancy
  0    88      6.53037    0.00694      6.52984    0.00694
  0    89      6.56429    0.00694      6.56466    0.00694
  0    90      8.42649    0.00000      8.42548    0.00000
  0    91      8.44852    0.00000      8.44967    0.00000

  1    88      6.56887    0.00694      6.56802    0.00694
  1    89      6.59617    0.00694      6.59689    0.00694
  1    90      8.38274    0.00000      8.38192    0.00000
  1    91      8.40552    0.00000      8.40642    0.00000

Fermi level: 7.59537

Gap: 1.699 eV
Transition (v -> c):
  (s=0, k=50, n=89, [-0.08, -0.42, 0.12]) -> (s=1, k=86, n=90, [0.08, 0.08, 0.12])
Writing to born-0.01-24x+.gpw (mode='all')