User:   madkru@i013.nifl.fysik.dtu.dk
Date:   Mon Mar 22 13:03:50 2021
Arch:   x86_64
Pid:    27943
Python: 3.7.4
gpaw:   /home/niflheim/madkru/venv_folder/gpaw/gpaw (d0d1ca1c71)
_gpaw:  /home/niflheim/madkru/venv_folder/gpaw/build/lib.linux-x86_64-ivybridge-3.7/
        _gpaw.cpython-37m-x86_64-linux-gnu.so (4fd39e8b1e)
ase:    /home/niflheim/madkru/venv_folder/ase/ase (version 3.21.0b1-7e6c206a91)
numpy:  /home/niflheim/madkru/venv_folder/lib/python3.7/site-packages/numpy (version 1.19.4)
scipy:  /home/niflheim/madkru/venv_folder/lib/python3.7/site-packages/scipy (version 1.5.4)
units:  Angstrom and eV
cores: 32
OMP_NUM_THREADS: 1

Input parameters:
  convergence: {bands: occupied,
                density: 0.0001,
                eigenstates: 4e-08,
                energy: 0.0005,
                forces: 1e-06}
  kpts: [6 6 4]
  mode: {ecut: 600.0,
         gammacentered: False,
         name: pw}
  occupations: {fixmagmom: False,
                name: fermi-dirac,
                width: 0.001}
  symmetry: {point_group: False,
             time_reversal: False}

System changes: positions, numbers, cell, pbc, initial_charges, initial_magmoms

Initialize ...

O-setup:
  name: Oxygen
  id: 9b9d51c344dea68c822856295a461509
  Z: 8.0
  valence: 6
  core: 2
  charge: 0.0
  file: /home/modules/software/GPAW-setups/0.9.20000/O.LDA.gz
  compensation charges: gauss, rc=0.21, lmax=2
  cutoffs: 1.17(filt), 0.83(core),
  valence states:
                energy  radius
    2s(2.00)   -23.752   0.688
    2p(4.00)    -9.195   0.598
    *s           3.459   0.688
    *p          18.016   0.598
    *d           0.000   0.619

  Using partial waves for O as LCAO basis

Mn-setup:
  name: Manganese
  id: 0d715a8018be061a6e9ea6f2d364ac92
  Z: 25.0
  valence: 15
  core: 10
  charge: 0.0
  file: /home/modules/software/GPAW-setups/0.9.20000/Mn.LDA.gz
  compensation charges: gauss, rc=0.38, lmax=2
  cutoffs: 2.14(filt), 0.86(core),
  valence states:
                energy  radius
    3s(2.00)   -85.387   1.275
    4s(2.00)    -5.282   1.275
    3p(6.00)   -54.493   1.281
    4p(0.00)    -1.471   1.281
    3d(5.00)    -7.009   1.138
    *d          20.203   1.138

[...]

P-setup:
  name: Phosphorus
  id: a5561c299094968922a179ab894d2e2d
  Z: 15.0
  valence: 5
  core: 10
  charge: 0.0
  file: /home/modules/software/GPAW-setups/0.9.20000/P.LDA.gz
  compensation charges: gauss, rc=0.30, lmax=2
  cutoffs: 1.69(filt), 1.81(core),
  valence states:
                energy  radius
    3s(2.00)   -14.015   0.953
    3p(3.00)    -5.596   0.953
    *s          13.197   0.953
    *p          21.615   0.953
    *d           0.000   0.953

[...]

Li-setup:
  name: Lithium
  id: b73562207f97a71b6967473b66fe8b65
  Z: 3.0
  valence: 1
  core: 2
  charge: 0.0
  file: /home/modules/software/GPAW-setups/0.9.20000/Li.LDA.gz
  compensation charges: gauss, rc=0.33, lmax=2
  cutoffs: 1.91(filt), 2.55(core),
  valence states:
                energy  radius
    2s(1.00)    -2.874   1.058
    2p(0.00)    -1.126   1.058
    *s          24.338   1.058

  Using partial waves for Li as LCAO basis

Reference energy: -196157.275402

Spin-polarized calculation.
Magnetic moment: 0.000000

Convergence criteria:
  Maximum total energy change: 0.0005 eV / electron
  Maximum integral of absolute density change: 0.0001 electrons
  Maximum integral of absolute eigenstate change: 4e-08 eV^2
  Maximum change in atomic force: 1e-06 eV / Ang
  Maximum number of iterations: 333

Symmetries present (total): 1

  ( 1  0  0)
  ( 0  1  0)
  ( 0  0  1)

144 k-points: 6 x 6 x 4 Monkhorst-Pack grid
144 k-points in the irreducible part of the Brillouin zone
       k-points in crystal coordinates                weights
   0:    -0.41666667   -0.41666667   -0.37500000          1/144
   1:    -0.41666667   -0.41666667   -0.12500000          1/144
   2:    -0.41666667   -0.41666667    0.12500000          1/144
   3:    -0.41666667   -0.41666667    0.37500000          1/144
   4:    -0.41666667   -0.25000000   -0.37500000          1/144
   5:    -0.41666667   -0.25000000   -0.12500000          1/144
   6:    -0.41666667   -0.25000000    0.12500000          1/144
   7:    -0.41666667   -0.25000000    0.37500000          1/144
   8:    -0.41666667   -0.08333333   -0.37500000          1/144
   9:    -0.41666667   -0.08333333   -0.12500000          1/144
          ...
 143:     0.41666667    0.41666667    0.37500000          1/144

Wave functions: Plane wave expansion
  Cutoff energy: 600.000 eV
  Number of coefficients (min, max): 9132, 9161
  Pulay-stress correction: 0.000000 eV/Ang^3 (de/decut=0.000000)
  Using FFTW library
  ScaLapack parameters: grid=1x1, blocksize=None
  Wavefunction extrapolation:
    Improved wavefunction reuse through dual PAW basis

  Fermi-Dirac: width=0.0010 eV

Eigensolver
   Davidson(niter=2, smin=None, normalize=True)

Densities:
  Coarse grid: 60*35*27 grid
  Fine grid: 120*70*54 grid
  Total Charge: 0.000000

Density mixing:
  Method: difference
  Backend: pulay
  Linear mixing parameter: 0.05
  Mixing with 5 old densities
  Damping of long wave oscillations: 50

Hamiltonian:
  XC and Coulomb potentials evaluated on a 120*70*54 grid
  Using the LDA Exchange-Correlation functional

Total number of cores used: 32
Parallelization over k-points: 16
Domain decomposition: 2 x 1 x 1

Number of atoms: 28
Number of atomic orbitals: 148
Number of bands in calculation: 112
Number of valence electrons: 180
Bands to converge: occupied

... initialized

Initializing position-dependent things.

Density initialized from atomic densities
Creating initial wave functions:
  112 bands from LCAO basis set

               O     O  P  O
            PO           OMn     O
                  O          MO
            O        Li O
             Mn  On          OP
         O         Li O
         Li     O P         O
       Li

Positions:
   0 O     -1.280122   -2.495595   -1.112331    ( 0.0000,  0.0000,  0.0000)
   1 O     -3.023238    2.918858    1.191723    ( 0.0000,  0.0000,  0.0000)
   2 O      1.997451    0.467212    1.441442    ( 0.0000,  0.0000,  0.0000)
   3 O      3.740343   -0.043905   -0.862614    ( 0.0000,  0.0000,  0.0000)
   4 O      1.997419    2.918835    1.441465    ( 0.0000,  0.0000,  0.0000)
   5 O      3.740372   -2.495531   -0.862587    ( 0.0000,  0.0000,  0.0000)
   6 O     -1.280154   -0.043891   -1.102309    ( 0.0000,  0.0000,  0.0000)
   7 O     -3.023210    0.467136    1.191750    ( 0.0000,  0.0000,  0.0000)
   8 O     -4.147405   -1.269737   -0.856207    ( 0.0000,  0.0000,  0.0000)
   9 O     -0.155894    1.692986    1.447725    ( 0.0000,  0.0000,  0.0000)
  10 O      4.864578    1.693016    1.185324    ( 0.0000,  0.0000,  0.0000)
  11 O      0.873163   -1.269706   -1.118625    ( 0.0000,  0.0000,  0.0000)
  12 Mn    -2.437108   -1.269902    0.302197    ( 0.0000,  0.0000,  1.0000)
  13 Mn    -1.866187    1.693156   -2.001927    ( 0.0000,  0.0000, -1.0000)
  14 Mn     3.154299    1.693181    0.026917    ( 0.0000,  0.0000, -1.0000)
  15 Mn     2.583444   -1.269877    2.331074    ( 0.0000,  0.0000,  1.0000)
  16 P     -0.543052   -1.269720   -1.734187    ( 0.0000,  0.0000,  0.0000)
  17 P     -3.760282    1.692974    0.569859    ( 0.0000,  0.0000,  0.0000)
  18 P      1.260300    1.693000    2.063344    ( 0.0000,  0.0000,  0.0000)
  19 P      4.477470   -1.269695   -0.240696    ( 0.0000,  0.0000,  0.0000)
  20 O     -0.544413   -1.269738    1.348523    ( 0.0000,  0.0000,  0.0000)
  21 O     -3.758895    1.692992   -0.955558    ( 0.0000,  0.0000,  0.0000)
  22 O      1.261690    1.693018   -1.019367    ( 0.0000,  0.0000,  0.0000)
  23 O      4.476045   -1.269713    1.284716    ( 0.0000,  0.0000,  0.0000)
  24 Li    -4.662027   -2.751322   -2.139440    ( 0.0000,  0.0000,  0.0000)
  25 Li     0.358703   -2.751277    0.164614    ( 0.0000,  0.0000,  0.0000)
  26 Li    -4.662011    0.211617   -2.139439    ( 0.0000,  0.0000,  0.0000)
  27 Li     0.358720    0.211628    0.164615    ( 0.0000,  0.0000,  0.0000)

Unit cell:
           periodic     x           y           z      points  spacing
  1. axis:    yes   10.041096    0.000054   -0.000022    60     0.1674
  2. axis:    yes    0.000032    5.925857    0.000001    35     0.1693
  3. axis:    yes   -0.000010    0.000001    4.608134    27     0.1707

  Lengths:  10.041096   5.925857   4.608134
  Angles:   89.999974  90.000250  89.999381

Effective grid spacing dv^(1/3) = 0.1691

                     log10-error:           total        iterations:
           time      wfs    density  force  energy       poisson  magmom
iter:   1  13:06:55                       -233.734937             +0.0000
iter:   2  13:07:31  -0.47  -0.95         -231.547684             +0.0013
iter:   3  13:08:07  -0.60  -1.00         -220.822363             +0.0014
iter:   4  13:08:44  -1.21  -1.31         -221.393846             +0.4117
iter:   5  13:09:20  -2.15  -1.38         -222.443663             +0.2350
iter:   6  13:09:56  -2.23  -1.38         -224.251848             +0.0081
iter:   7  13:10:32  -2.17  -1.50         -224.368926             -0.6064
iter:   8  13:11:09  -2.47  -1.63         -225.750587             -1.0036
iter:   9  13:11:45  -2.35  -1.89         -226.425120             -0.4378
iter:  10  13:12:21  -2.12  -2.10         -226.265321             -0.1272
iter:  11  13:12:57  -2.92  -2.28         -226.275111             -0.0691
iter:  12  13:13:33  -2.38  -2.34         -226.242891             +0.0229
iter:  13  13:14:09  -3.07  -2.73         -226.188163             -0.0115
iter:  14  13:14:46  -3.31  -2.87         -226.199024             -0.0048
iter:  15  13:15:22  -3.23  -2.85         -226.176273             -0.0021
iter:  16  13:15:58  -4.27  -3.28         -226.177092             -0.0011
iter:  17  13:16:34  -4.57  -3.32         -226.175822             -0.0001
iter:  18  13:17:10  -4.16  -3.42         -226.175843             -0.0001
iter:  19  13:17:46  -4.93  -3.64         -226.174646             -0.0000
iter:  20  13:18:22  -5.08  -3.81         -226.174212             -0.0001
iter:  21  13:18:59  -5.66  -4.10         -226.174816             -0.0000
iter:  22  13:19:35  -6.02  -4.26         -226.174842             -0.0000
iter:  23  13:20:11  -6.35  -4.26         -226.174811             -0.0000
iter:  24  13:20:47  -7.20  -4.36         -226.174810             -0.0000
iter:  25  13:21:23  -6.35  -4.41         -226.174828             -0.0000
iter:  26  13:22:00  -6.65  -4.50         -226.174807             -0.0000
iter:  27  13:22:45  -7.66  -4.82         -226.174807             -0.0000
iter:  28  13:23:30  -7.98  -5.06    -2.74-226.174806             -0.0000
iter:  29  13:24:16  -9.01  -5.23    -3.46-226.174806             -0.0000
iter:  30  13:25:01  -8.27  -5.27    -2.78-226.174806             -0.0000
iter:  31  13:25:46  -8.51  -5.52    -3.08-226.174806             -0.0000
iter:  32  13:26:32 -10.03  -5.72    -3.74-226.174806             -0.0000
iter:  33  13:27:17  -9.61  -5.77    -3.41-226.174806             +0.0000
iter:  34  13:28:02  -9.32  -5.92    -3.49-226.174806             +0.0000
iter:  35  13:28:48 -10.03  -5.98    -3.92-226.174806             +0.0000
iter:  36  13:29:33 -10.90  -6.19    -4.11-226.174806             +0.0000
iter:  37  13:30:19 -10.56  -6.26    -4.17-226.174806             +0.0000
iter:  38  13:31:04 -10.83  -6.40    -4.34-226.174806             +0.0000
iter:  39  13:31:49 -11.26  -6.55    -4.79-226.174806             +0.0000
iter:  40  13:32:35 -12.43  -6.58    -4.95-226.174806             +0.0000
iter:  41  13:33:20 -12.38  -6.62    -4.59-226.174806             +0.0000
iter:  42  13:34:05 -11.50  -6.68    -4.78-226.174806             -0.0000
iter:  43  13:34:51 -12.04  -6.78    -5.04-226.174806             +0.0000
iter:  44  13:35:36 -12.24  -6.84    -5.48-226.174806             -0.0000
iter:  45  13:36:21 -12.13  -6.90    -4.80-226.174806             -0.0000
iter:  46  13:37:07 -12.56  -7.01    -5.17-226.174806             -0.0000
iter:  47  13:37:52 -12.48  -7.08    -5.23-226.174806             -0.0000
iter:  48  13:38:38 -12.97  -7.18    -4.89-226.174806             -0.0000
iter:  49  13:39:23 -12.77  -7.34    -5.32-226.174806             -0.0000
iter:  50  13:40:08 -13.89  -7.48    -6.04-226.174806             -0.0000

Converged after 50 iterations.

Dipole moment: (18.327246, -2.304340, -4.520481) |e|*Ang

Total magnetic moment: (0.000000, 0.000000, -0.000000)
Local magnetic moments:
   0 O  ( 0.000000,  0.000000, -0.001792)
   1 O  ( 0.000000,  0.000000,  0.001666)
   2 O  ( 0.000000,  0.000000,  0.001821)
   3 O  ( 0.000000,  0.000000, -0.001805)
   4 O  ( 0.000000,  0.000000,  0.001818)
   5 O  ( 0.000000,  0.000000, -0.001795)
   6 O  ( 0.000000,  0.000000, -0.001533)
   7 O  ( 0.000000,  0.000000,  0.001862)
   8 O  ( 0.000000,  0.000000,  0.031118)
   9 O  ( 0.000000,  0.000000, -0.031042)
  10 O  ( 0.000000,  0.000000, -0.031103)
  11 O  ( 0.000000,  0.000000,  0.031189)
  12 Mn ( 0.000000,  0.000000,  4.395207)
  13 Mn ( 0.000000,  0.000000, -4.396220)
  14 Mn ( 0.000000,  0.000000, -4.395715)
  15 Mn ( 0.000000,  0.000000,  4.395770)
  16 P  ( 0.000000,  0.000000,  0.001078)
  17 P  ( 0.000000,  0.000000, -0.000857)
  18 P  ( 0.000000,  0.000000, -0.000863)
  19 P  ( 0.000000,  0.000000,  0.000883)
  20 O  ( 0.000000,  0.000000,  0.028415)
  21 O  ( 0.000000,  0.000000, -0.028394)
  22 O  ( 0.000000,  0.000000, -0.028407)
  23 O  ( 0.000000,  0.000000,  0.028423)
  24 Li ( 0.000000,  0.000000,  0.000001)
  25 Li ( 0.000000,  0.000000,  0.000001)
  26 Li ( 0.000000,  0.000000, -0.000001)
  27 Li ( 0.000000,  0.000000,  0.000008)

Energy contributions relative to reference atoms: (reference = -196157.275402)

Kinetic:       +277.375605
Potential:     -240.774952
External:        +0.000000
XC:            -264.664702
Entropy (-ST):   -0.000000
Local:           +1.889243
Free energy:   -226.174806
Extrapolated:  -226.174806

Spin contamination: 9.455150 electrons
Showing only first 2 kpts
                      Up                     Down
 Kpt  Band  Eigenvalues  Occupancy  Eigenvalues  Occupancy
  0    88      6.53251    0.00694      6.52872    0.00694
  0    89      6.56656    0.00694      6.56287    0.00694
  0    90      8.42728    0.00000      8.42895    0.00000
  0    91      8.44882    0.00000      8.45071    0.00000

  1    88      6.57081    0.00694      6.56741    0.00694
  1    89      6.59906    0.00694      6.59503    0.00694
  1    90      8.38342    0.00000      8.38473    0.00000
  1    91      8.40558    0.00000      8.40732    0.00000

Fermi level: 7.71351

Gap: 1.697 eV
Transition (v -> c):
  (s=0, k=74, n=89, [0.08, -0.42, 0.12]) -> (s=0, k=82, n=90, [0.08, -0.08, 0.12])
Writing to born-0.01-6z+.gpw (mode='all')