User:   madkru@i008.nifl.fysik.dtu.dk
Date:   Wed Mar 24 17:18:43 2021
Arch:   x86_64
Pid:    26969
Python: 3.7.4
gpaw:   /home/niflheim/madkru/venv_folder/gpaw/gpaw (d224efde0f)
_gpaw:  /home/niflheim/madkru/venv_folder/gpaw/build/lib.linux-x86_64-ivybridge-3.7/
        _gpaw.cpython-37m-x86_64-linux-gnu.so (4fd39e8b1e)
ase:    /home/niflheim/madkru/venv_folder/ase/ase (version 3.21.0b1-4d5a73cb29)
numpy:  /home/niflheim/madkru/venv_folder/lib/python3.7/site-packages/numpy (version 1.19.4)
scipy:  /home/niflheim/madkru/venv_folder/lib/python3.7/site-packages/scipy (version 1.5.4)
units:  Angstrom and eV
cores: 64
OMP_NUM_THREADS: 1

Input parameters:
  convergence: {bands: occupied,
                density: 0.0001,
                eigenstates: 4e-08,
                energy: 0.0005,
                forces: 1e-06}
  kpts: [6 6 4]
  mode: {ecut: 600.0,
         gammacentered: False,
         name: pw}
  occupations: {fixmagmom: False,
                name: fermi-dirac,
                width: 0.001}
  symmetry: {point_group: False,
             time_reversal: False}

System changes: positions, numbers, cell, pbc, initial_charges, initial_magmoms

Initialize ...

O-setup:
  name: Oxygen
  id: 9b9d51c344dea68c822856295a461509
  Z: 8.0
  valence: 6
  core: 2
  charge: 0.0
  file: /home/modules/software/GPAW-setups/0.9.20000/O.LDA.gz
  compensation charges: gauss, rc=0.21, lmax=2
  cutoffs: 1.17(filt), 0.83(core),
  valence states:
                energy  radius
    2s(2.00)   -23.752   0.688
    2p(4.00)    -9.195   0.598
    *s           3.459   0.688
    *p          18.016   0.598
    *d           0.000   0.619

  Using partial waves for O as LCAO basis

Mn-setup:
  name: Manganese
  id: 0d715a8018be061a6e9ea6f2d364ac92
  Z: 25.0
  valence: 15
  core: 10
  charge: 0.0
  file: /home/modules/software/GPAW-setups/0.9.20000/Mn.LDA.gz
  compensation charges: gauss, rc=0.38, lmax=2
  cutoffs: 2.14(filt), 0.86(core),
  valence states:
                energy  radius
    3s(2.00)   -85.387   1.275
    4s(2.00)    -5.282   1.275
    3p(6.00)   -54.493   1.281
    4p(0.00)    -1.471   1.281
    3d(5.00)    -7.009   1.138
    *d          20.203   1.138

[...]

P-setup:
  name: Phosphorus
  id: a5561c299094968922a179ab894d2e2d
  Z: 15.0
  valence: 5
  core: 10
  charge: 0.0
  file: /home/modules/software/GPAW-setups/0.9.20000/P.LDA.gz
  compensation charges: gauss, rc=0.30, lmax=2
  cutoffs: 1.69(filt), 1.81(core),
  valence states:
                energy  radius
    3s(2.00)   -14.015   0.953
    3p(3.00)    -5.596   0.953
    *s          13.197   0.953
    *p          21.615   0.953
    *d           0.000   0.953

[...]

Li-setup:
  name: Lithium
  id: b73562207f97a71b6967473b66fe8b65
  Z: 3.0
  valence: 1
  core: 2
  charge: 0.0
  file: /home/modules/software/GPAW-setups/0.9.20000/Li.LDA.gz
  compensation charges: gauss, rc=0.33, lmax=2
  cutoffs: 1.91(filt), 2.55(core),
  valence states:
                energy  radius
    2s(1.00)    -2.874   1.058
    2p(0.00)    -1.126   1.058
    *s          24.338   1.058

  Using partial waves for Li as LCAO basis

Reference energy: -196157.275402

Spin-polarized calculation.
Magnetic moment: 0.000000

Convergence criteria:
  Maximum total energy change: 0.0005 eV / electron
  Maximum integral of absolute density change: 0.0001 electrons
  Maximum integral of absolute eigenstate change: 4e-08 eV^2
  Maximum change in atomic force: 1e-06 eV / Ang
  Maximum number of iterations: 333

Symmetries present (total): 1

  ( 1  0  0)
  ( 0  1  0)
  ( 0  0  1)

144 k-points: 6 x 6 x 4 Monkhorst-Pack grid
144 k-points in the irreducible part of the Brillouin zone
       k-points in crystal coordinates                weights
   0:    -0.41666667   -0.41666667   -0.37500000          1/144
   1:    -0.41666667   -0.41666667   -0.12500000          1/144
   2:    -0.41666667   -0.41666667    0.12500000          1/144
   3:    -0.41666667   -0.41666667    0.37500000          1/144
   4:    -0.41666667   -0.25000000   -0.37500000          1/144
   5:    -0.41666667   -0.25000000   -0.12500000          1/144
   6:    -0.41666667   -0.25000000    0.12500000          1/144
   7:    -0.41666667   -0.25000000    0.37500000          1/144
   8:    -0.41666667   -0.08333333   -0.37500000          1/144
   9:    -0.41666667   -0.08333333   -0.12500000          1/144
          ...
 143:     0.41666667    0.41666667    0.37500000          1/144

Wave functions: Plane wave expansion
  Cutoff energy: 600.000 eV
  Number of coefficients (min, max): 9132, 9161
  Pulay-stress correction: 0.000000 eV/Ang^3 (de/decut=0.000000)
  Using FFTW library
  ScaLapack parameters: grid=1x1, blocksize=None
  Wavefunction extrapolation:
    Improved wavefunction reuse through dual PAW basis

  Fermi-Dirac: width=0.0010 eV

Eigensolver
   Davidson(niter=2, smin=None, normalize=True)

Densities:
  Coarse grid: 60*35*27 grid
  Fine grid: 120*70*54 grid
  Total Charge: 0.000000

Density mixing:
  Method: difference
  Backend: pulay
  Linear mixing parameter: 0.05
  Mixing with 5 old densities
  Damping of long wave oscillations: 50

Hamiltonian:
  XC and Coulomb potentials evaluated on a 120*70*54 grid
  Using the LDA Exchange-Correlation functional

Total number of cores used: 64
Parallelization over k-points: 16
Domain decomposition: 2 x 2 x 1

Number of atoms: 28
Number of atomic orbitals: 148
Number of bands in calculation: 112
Number of valence electrons: 180
Bands to converge: occupied

... initialized

Initializing position-dependent things.

Density initialized from atomic densities
Creating initial wave functions:
  112 bands from LCAO basis set

               O     O  P  O
            PO           OMn     O
                  O          MO
            O        Li O
             Mn  Mn          OP
         O       O Li O
         Li     O P         O
       Li

Positions:
   0 O     -1.280122   -2.495595   -1.112331    ( 0.0000,  0.0000,  0.0000)
   1 O     -3.023238    2.918858    1.191723    ( 0.0000,  0.0000,  0.0000)
   2 O      1.997451    0.467212    1.441442    ( 0.0000,  0.0000,  0.0000)
   3 O      3.740343   -0.043905   -0.862614    ( 0.0000,  0.0000,  0.0000)
   4 O      1.997419    2.918835    1.441465    ( 0.0000,  0.0000,  0.0000)
   5 O      3.740372   -2.495531   -0.862587    ( 0.0000,  0.0000,  0.0000)
   6 O     -1.280154   -0.043891   -1.112309    ( 0.0000,  0.0000,  0.0000)
   7 O     -3.023210    0.467136    1.191750    ( 0.0000,  0.0000,  0.0000)
   8 O     -4.147405   -1.269737   -0.856207    ( 0.0000,  0.0000,  0.0000)
   9 O     -0.155894    1.692986    1.447725    ( 0.0000,  0.0000,  0.0000)
  10 O      4.864578    1.693016    1.185324    ( 0.0000,  0.0000,  0.0000)
  11 O      0.873163   -1.269706   -1.118625    ( 0.0000,  0.0000,  0.0000)
  12 Mn    -2.437108   -1.269902    0.302197    ( 0.0000,  0.0000,  1.0000)
  13 Mn    -1.856187    1.693156   -2.001927    ( 0.0000,  0.0000, -1.0000)
  14 Mn     3.154299    1.693181    0.026917    ( 0.0000,  0.0000, -1.0000)
  15 Mn     2.583444   -1.269877    2.331074    ( 0.0000,  0.0000,  1.0000)
  16 P     -0.543052   -1.269720   -1.734187    ( 0.0000,  0.0000,  0.0000)
  17 P     -3.760282    1.692974    0.569859    ( 0.0000,  0.0000,  0.0000)
  18 P      1.260300    1.693000    2.063344    ( 0.0000,  0.0000,  0.0000)
  19 P      4.477470   -1.269695   -0.240696    ( 0.0000,  0.0000,  0.0000)
  20 O     -0.544413   -1.269738    1.348523    ( 0.0000,  0.0000,  0.0000)
  21 O     -3.758895    1.692992   -0.955558    ( 0.0000,  0.0000,  0.0000)
  22 O      1.261690    1.693018   -1.019367    ( 0.0000,  0.0000,  0.0000)
  23 O      4.476045   -1.269713    1.284716    ( 0.0000,  0.0000,  0.0000)
  24 Li    -4.662027   -2.751322   -2.139440    ( 0.0000,  0.0000,  0.0000)
  25 Li     0.358703   -2.751277    0.164614    ( 0.0000,  0.0000,  0.0000)
  26 Li    -4.662011    0.211617   -2.139439    ( 0.0000,  0.0000,  0.0000)
  27 Li     0.358720    0.211628    0.164615    ( 0.0000,  0.0000,  0.0000)

Unit cell:
           periodic     x           y           z      points  spacing
  1. axis:    yes   10.041096    0.000054   -0.000022    60     0.1674
  2. axis:    yes    0.000032    5.925857    0.000001    35     0.1693
  3. axis:    yes   -0.000010    0.000001    4.608134    27     0.1707

  Lengths:  10.041096   5.925857   4.608134
  Angles:   89.999974  90.000250  89.999381

Effective grid spacing dv^(1/3) = 0.1691

                     log10-error:           total        iterations:
           time      wfs    density  force  energy       poisson  magmom
iter:   1  17:20:16                       -233.725787             +0.0000
iter:   2  17:20:35  -0.47  -0.95         -231.554432             -0.0001
iter:   3  17:20:55  -0.61  -1.00         -220.819412             -0.0001
iter:   4  17:21:15  -1.20  -1.30         -221.327485             +0.4138
iter:   5  17:21:35  -2.15  -1.38         -222.456876             +0.2368
iter:   6  17:21:54  -2.21  -1.38         -224.287783             +0.0097
iter:   7  17:22:14  -2.17  -1.50         -224.340081             -0.6320
iter:   8  17:22:34  -2.47  -1.63         -225.690262             -1.0294
iter:   9  17:22:54  -2.33  -1.88         -226.426461             -0.4509
iter:  10  17:23:13  -2.05  -2.09         -226.267855             -0.1293
iter:  11  17:23:33  -3.04  -2.27         -226.272028             -0.0718
iter:  12  17:23:53  -2.12  -2.31         -226.368447             +0.0099
iter:  13  17:24:12  -2.51  -2.55         -226.199212             -0.0144
iter:  14  17:24:32  -3.37  -2.80         -226.203032             -0.0043
iter:  15  17:24:52  -3.18  -2.81         -226.176006             -0.0018
iter:  16  17:25:12  -4.20  -3.19         -226.177612             -0.0011
iter:  17  17:25:32  -4.34  -3.22         -226.177232             -0.0001
iter:  18  17:25:51  -4.23  -3.23         -226.175136             -0.0001
iter:  19  17:26:11  -5.18  -3.43         -226.174766             -0.0001
iter:  20  17:26:31  -5.07  -3.51         -226.174888             -0.0000
iter:  21  17:26:51  -5.81  -3.91         -226.174963             -0.0000
iter:  22  17:27:10  -5.72  -3.97         -226.174844             -0.0000
iter:  23  17:27:30  -6.68  -4.08         -226.174853             -0.0000
iter:  24  17:27:50  -6.44  -4.16         -226.174845             -0.0000
iter:  25  17:28:09  -6.83  -4.38         -226.174845             -0.0000
iter:  26  17:28:34  -7.53  -4.54         -226.174843             +0.0000
iter:  27  17:28:58  -7.56  -4.62    -2.87-226.174839             +0.0000
iter:  28  17:29:18  -7.12  -4.71         -226.174833             +0.0000
iter:  29  17:29:42  -7.64  -4.93    -2.36-226.174833             +0.0000
iter:  30  17:30:06  -8.35  -4.98    -3.08-226.174833             +0.0000
iter:  31  17:30:31  -8.35  -5.02    -2.66-226.174833             -0.0000
iter:  32  17:30:55  -9.06  -5.34    -3.26-226.174833             -0.0000
iter:  33  17:31:19  -9.79  -5.38    -3.69-226.174833             -0.0000
iter:  34  17:31:44  -9.53  -5.42    -3.66-226.174833             -0.0000
iter:  35  17:32:08  -9.60  -5.62    -3.17-226.174833             -0.0000
iter:  36  17:32:32 -10.19  -5.74    -3.81-226.174833             -0.0000
iter:  37  17:32:57  -9.92  -5.81    -3.73-226.174833             -0.0000
iter:  38  17:33:21  -9.96  -5.95    -4.11-226.174833             -0.0000
iter:  39  17:33:45 -10.15  -6.24    -3.68-226.174833             -0.0000
iter:  40  17:34:10 -11.04  -6.58    -4.61-226.174833             +0.0000
iter:  41  17:34:34 -11.26  -6.72    -4.51-226.174833             +0.0000
iter:  42  17:34:58 -11.11  -6.83    -4.62-226.174833             +0.0000
iter:  43  17:35:23 -11.86  -7.10    -5.17-226.174833             +0.0000
iter:  44  17:35:47 -12.57  -7.14    -5.18-226.174833             -0.0000
iter:  45  17:36:11 -13.17  -7.21    -5.36-226.174833             +0.0000
iter:  46  17:36:36 -12.68  -7.30    -5.15-226.174833             +0.0000
iter:  47  17:37:00 -13.82  -7.49    -6.28-226.174833             +0.0000

Converged after 47 iterations.

Dipole moment: (18.340249, -2.306498, -4.524651) |e|*Ang

Total magnetic moment: (0.000000, 0.000000, 0.000000)
Local magnetic moments:
   0 O  ( 0.000000,  0.000000, -0.002051)
   1 O  ( 0.000000,  0.000000,  0.002198)
   2 O  ( 0.000000,  0.000000,  0.001782)
   3 O  ( 0.000000,  0.000000, -0.001787)
   4 O  ( 0.000000,  0.000000,  0.001777)
   5 O  ( 0.000000,  0.000000, -0.001782)
   6 O  ( 0.000000,  0.000000, -0.002057)
   7 O  ( 0.000000,  0.000000,  0.002203)
   8 O  ( 0.000000,  0.000000,  0.031133)
   9 O  ( 0.000000,  0.000000, -0.031575)
  10 O  ( 0.000000,  0.000000, -0.031165)
  11 O  ( 0.000000,  0.000000,  0.031069)
  12 Mn ( 0.000000,  0.000000,  4.396019)
  13 Mn ( 0.000000,  0.000000, -4.395492)
  14 Mn ( 0.000000,  0.000000, -4.395755)
  15 Mn ( 0.000000,  0.000000,  4.395747)
  16 P  ( 0.000000,  0.000000,  0.000794)
  17 P  ( 0.000000,  0.000000, -0.000655)
  18 P  ( 0.000000,  0.000000, -0.001012)
  19 P  ( 0.000000,  0.000000,  0.000875)
  20 O  ( 0.000000,  0.000000,  0.028364)
  21 O  ( 0.000000,  0.000000, -0.028048)
  22 O  ( 0.000000,  0.000000, -0.028407)
  23 O  ( 0.000000,  0.000000,  0.028453)
  24 Li ( 0.000000,  0.000000, -0.000003)
  25 Li ( 0.000000,  0.000000, -0.000018)
  26 Li ( 0.000000,  0.000000, -0.000003)
  27 Li ( 0.000000,  0.000000, -0.000018)

Energy contributions relative to reference atoms: (reference = -196157.275402)

Kinetic:       +277.639786
Potential:     -240.984523
External:        +0.000000
XC:            -264.718385
Entropy (-ST):   -0.000000
Local:           +1.888289
Free energy:   -226.174833
Extrapolated:  -226.174833

Spin contamination: 9.455901 electrons
Showing only first 2 kpts
                      Up                     Down
 Kpt  Band  Eigenvalues  Occupancy  Eigenvalues  Occupancy
  0    88      6.53070    0.00694      6.53233    0.00694
  0    89      6.56530    0.00694      6.56537    0.00694
  0    90      8.42650    0.00000      8.42717    0.00000
  0    91      8.44823    0.00000      8.44855    0.00000

  1    88      6.56902    0.00694      6.57072    0.00694
  1    89      6.59731    0.00694      6.59688    0.00694
  1    90      8.38235    0.00000      8.38355    0.00000
  1    91      8.40457    0.00000      8.40569    0.00000

Fermi level: 7.73624

Gap: 1.697 eV
Transition (v -> c):
  (s=1, k=93, n=89, [0.08, 0.42, -0.12]) -> (s=0, k=62, n=90, [-0.08, 0.08, 0.12])
Writing to born-0.01-13x+.gpw (mode='all')