User:   madkru@g043.nifl.fysik.dtu.dk
Date:   Mon Mar 29 20:49:45 2021
Arch:   x86_64
Pid:    9629
Python: 3.8.6
gpaw:   /home/niflheim/madkru/venv_madkru/gpaw/gpaw (e6f0d78a31)
_gpaw:  /home/niflheim/madkru/venv_madkru/gpaw/build/lib.linux-x86_64-sandybridge-3.8/
        _gpaw.cpython-38-x86_64-linux-gnu.so (e6f0d78a31)
ase:    /home/niflheim/madkru/venv_madkru/ase/ase (version 3.22.0b1-4d5a73cb29)
numpy:  /home/modules/software/SciPy-bundle/2020.11-foss-2020b/lib/python3.8/site-packages/numpy (version 1.19.4)
scipy:  /home/modules/software/SciPy-bundle/2020.11-foss-2020b/lib/python3.8/site-packages/scipy (version 1.5.4)
units:  Angstrom and eV
cores: 64
OpenMP: False
OMP_NUM_THREADS: 1

Input parameters:
  convergence: {bands: occupied,
                density: 0.0001,
                eigenstates: 4e-08,
                energy: 0.0005,
                forces: 1e-06}
  kpts: [6 6 4]
  mode: {ecut: 600.0,
         gammacentered: False,
         name: pw}
  occupations: {fixmagmom: False,
                name: fermi-dirac,
                width: 0.001}
  symmetry: {point_group: False,
             time_reversal: False}

System changes: positions, numbers, cell, pbc, initial_charges, initial_magmoms

Initialize ...

O-setup:
  name: Oxygen
  id: 9b9d51c344dea68c822856295a461509
  Z: 8.0
  valence: 6
  core: 2
  charge: 0.0
  file: /home/modules/software/GPAW-setups/0.9.20000/O.LDA.gz
  compensation charges: gauss, rc=0.21, lmax=2
  cutoffs: 1.17(filt), 0.83(core),
  valence states:
                energy  radius
    2s(2.00)   -23.752   0.688
    2p(4.00)    -9.195   0.598
    *s           3.459   0.688
    *p          18.016   0.598
    *d           0.000   0.619

  Using partial waves for O as LCAO basis

Mn-setup:
  name: Manganese
  id: 0d715a8018be061a6e9ea6f2d364ac92
  Z: 25.0
  valence: 15
  core: 10
  charge: 0.0
  file: /home/modules/software/GPAW-setups/0.9.20000/Mn.LDA.gz
  compensation charges: gauss, rc=0.38, lmax=2
  cutoffs: 2.14(filt), 0.86(core),
  valence states:
                energy  radius
    3s(2.00)   -85.387   1.275
    4s(2.00)    -5.282   1.275
    3p(6.00)   -54.493   1.281
    4p(0.00)    -1.471   1.281
    3d(5.00)    -7.009   1.138
    *d          20.203   1.138

[...]

P-setup:
  name: Phosphorus
  id: a5561c299094968922a179ab894d2e2d
  Z: 15.0
  valence: 5
  core: 10
  charge: 0.0
  file: /home/modules/software/GPAW-setups/0.9.20000/P.LDA.gz
  compensation charges: gauss, rc=0.30, lmax=2
  cutoffs: 1.69(filt), 1.81(core),
  valence states:
                energy  radius
    3s(2.00)   -14.015   0.953
    3p(3.00)    -5.596   0.953
    *s          13.197   0.953
    *p          21.615   0.953
    *d           0.000   0.953

[...]

Li-setup:
  name: Lithium
  id: b73562207f97a71b6967473b66fe8b65
  Z: 3.0
  valence: 1
  core: 2
  charge: 0.0
  file: /home/modules/software/GPAW-setups/0.9.20000/Li.LDA.gz
  compensation charges: gauss, rc=0.33, lmax=2
  cutoffs: 1.91(filt), 2.55(core),
  valence states:
                energy  radius
    2s(1.00)    -2.874   1.058
    2p(0.00)    -1.126   1.058
    *s          24.338   1.058

  Using partial waves for Li as LCAO basis

Reference energy: -196157.275402

Spin-polarized calculation.
Magnetic moment: 0.000000

Convergence criteria:
  Maximum total energy change: 0.0005 eV / electron
  Maximum integral of absolute density change: 0.0001 electrons
  Maximum integral of absolute eigenstate change: 4e-08 eV^2
  Maximum change in atomic force: 1e-06 eV / Ang
  Maximum number of iterations: 333

Symmetries present (total): 1

  ( 1  0  0)
  ( 0  1  0)
  ( 0  0  1)

144 k-points: 6 x 6 x 4 Monkhorst-Pack grid
144 k-points in the irreducible part of the Brillouin zone
       k-points in crystal coordinates                weights
   0:    -0.41666667   -0.41666667   -0.37500000          1/144
   1:    -0.41666667   -0.41666667   -0.12500000          1/144
   2:    -0.41666667   -0.41666667    0.12500000          1/144
   3:    -0.41666667   -0.41666667    0.37500000          1/144
   4:    -0.41666667   -0.25000000   -0.37500000          1/144
   5:    -0.41666667   -0.25000000   -0.12500000          1/144
   6:    -0.41666667   -0.25000000    0.12500000          1/144
   7:    -0.41666667   -0.25000000    0.37500000          1/144
   8:    -0.41666667   -0.08333333   -0.37500000          1/144
   9:    -0.41666667   -0.08333333   -0.12500000          1/144
          ...
 143:     0.41666667    0.41666667    0.37500000          1/144

Wave functions: Plane wave expansion
  Cutoff energy: 600.000 eV
  Number of coefficients (min, max): 9132, 9161
  Pulay-stress correction: 0.000000 eV/Ang^3 (de/decut=0.000000)
  Using FFTW library
  ScaLapack parameters: grid=1x1, blocksize=None
  Wavefunction extrapolation:
    Improved wavefunction reuse through dual PAW basis

  Fermi-Dirac: width=0.0010 eV

Eigensolver
   Davidson(niter=2)

Densities:
  Coarse grid: 60*35*27 grid
  Fine grid: 120*70*54 grid
  Total Charge: 0.000000

Density mixing:
  Method: difference
  Backend: pulay
  Linear mixing parameter: 0.05
  Mixing with 5 old densities
  Damping of long wave oscillations: 50

Hamiltonian:
  XC and Coulomb potentials evaluated on a 120*70*54 grid
  Using the LDA Exchange-Correlation functional

Total number of cores used: 64
Parallelization over k-points: 16
Domain decomposition: 2 x 2 x 1

Number of atoms: 28
Number of atomic orbitals: 148
Number of bands in calculation: 112
Number of valence electrons: 180
Bands to converge: occupied

... initialized

Initializing position-dependent things.

Density initialized from atomic densities
Creating initial wave functions:
  112 bands from LCAO basis set

               O     O  P  O
            PO           OMn     O
                  O          MO
            O        Li O
             Mn  On          OP
         O         Li O
         Li     O P         O
       Li

Positions:
   0 O     -1.280122   -2.495595   -1.112331    ( 0.0000,  0.0000,  0.0000)
   1 O     -3.023238    2.918858    1.191723    ( 0.0000,  0.0000,  0.0000)
   2 O      1.997451    0.467212    1.441442    ( 0.0000,  0.0000,  0.0000)
   3 O      3.740343   -0.043905   -0.862614    ( 0.0000,  0.0000,  0.0000)
   4 O      1.997419    2.918835    1.441465    ( 0.0000,  0.0000,  0.0000)
   5 O      3.740372   -2.495531   -0.862587    ( 0.0000,  0.0000,  0.0000)
   6 O     -1.280154   -0.043891   -1.112309    ( 0.0000,  0.0000,  0.0000)
   7 O     -3.023210    0.467136    1.191750    ( 0.0000,  0.0000,  0.0000)
   8 O     -4.147405   -1.269737   -0.856207    ( 0.0000,  0.0000,  0.0000)
   9 O     -0.155894    1.692986    1.447725    ( 0.0000,  0.0000,  0.0000)
  10 O      4.864578    1.693016    1.185324    ( 0.0000,  0.0000,  0.0000)
  11 O      0.873163   -1.269706   -1.118625    ( 0.0000,  0.0000,  0.0000)
  12 Mn    -2.437108   -1.269902    0.302197    ( 0.0000,  0.0000,  1.0000)
  13 Mn    -1.866187    1.693156   -2.001927    ( 0.0000,  0.0000, -1.0000)
  14 Mn     3.154299    1.693181    0.026917    ( 0.0000,  0.0000, -1.0000)
  15 Mn     2.583444   -1.269877    2.331074    ( 0.0000,  0.0000,  1.0000)
  16 P     -0.543052   -1.269720   -1.734187    ( 0.0000,  0.0000,  0.0000)
  17 P     -3.760282    1.692974    0.569859    ( 0.0000,  0.0000,  0.0000)
  18 P      1.260300    1.693000    2.063344    ( 0.0000,  0.0000,  0.0000)
  19 P      4.477470   -1.269695   -0.240696    ( 0.0000,  0.0000,  0.0000)
  20 O     -0.544413   -1.269738    1.348523    ( 0.0000,  0.0000,  0.0000)
  21 O     -3.758895    1.692992   -0.955558    ( 0.0000,  0.0000,  0.0000)
  22 O      1.261690    1.693018   -1.019367    ( 0.0000,  0.0000,  0.0000)
  23 O      4.476045   -1.269713    1.284716    ( 0.0000,  0.0000,  0.0000)
  24 Li    -4.662027   -2.751322   -2.139440    ( 0.0000,  0.0000,  0.0000)
  25 Li     0.358703   -2.751277    0.164614    ( 0.0000,  0.0000,  0.0000)
  26 Li    -4.662011    0.211617   -2.149439    ( 0.0000,  0.0000,  0.0000)
  27 Li     0.358720    0.211628    0.164615    ( 0.0000,  0.0000,  0.0000)

Unit cell:
           periodic     x           y           z      points  spacing
  1. axis:    yes   10.041096    0.000054   -0.000022    60     0.1674
  2. axis:    yes    0.000032    5.925857    0.000001    35     0.1693
  3. axis:    yes   -0.000010    0.000001    4.608134    27     0.1707

  Lengths:  10.041096   5.925857   4.608134
  Angles:   89.999974  90.000250  89.999381

Effective grid spacing dv^(1/3) = 0.1691

                     log10-error:           total        iterations:
           time      wfs    density  force  energy       poisson  magmom
iter:   1  20:51:28                       -233.730194             +0.0000
iter:   2  20:51:48  -0.47  -0.95         -231.549929             +0.0015
iter:   3  20:52:08  -0.61  -1.00         -220.798773             +0.0015
iter:   4  20:52:28  -1.19  -1.31         -220.818099             +0.3171
iter:   5  20:52:48  -2.07  -1.40         -222.941029             +0.1507
iter:   6  20:53:08  -2.07  -1.38         -224.965459             +0.3928
iter:   7  20:53:28  -2.01  -1.45         -223.423673             +0.1708
iter:   8  20:53:48  -2.34  -1.61         -224.494555             +0.1371
iter:   9  20:54:08  -2.58  -1.92         -225.957465             +0.3598
iter:  10  20:54:28  -2.21  -1.97         -226.441176             +0.1620
iter:  11  20:54:47  -2.05  -2.05         -226.411218             +0.0493
iter:  12  20:55:07  -3.36  -2.22         -226.334865             +0.0373
iter:  13  20:55:27  -2.14  -2.26         -226.240082             +0.0059
iter:  14  20:55:47  -2.75  -2.51         -226.197837             +0.0075
iter:  15  20:56:07  -3.29  -2.64         -226.212393             +0.0023
iter:  16  20:56:27  -3.51  -2.72         -226.180296             +0.0008
iter:  17  20:56:47  -3.97  -2.84         -226.177109             +0.0005
iter:  18  20:57:07  -3.86  -3.18         -226.176388             +0.0002
iter:  19  20:57:27  -4.79  -3.47         -226.172420             +0.0007
iter:  20  20:57:47  -4.81  -3.56         -226.175637             +0.0000
iter:  21  20:58:06  -5.49  -3.69         -226.175362             +0.0000
iter:  22  20:58:26  -5.72  -3.75         -226.175357             +0.0000
iter:  23  20:58:46  -6.49  -3.81         -226.175310             +0.0000
iter:  24  20:59:06  -5.62  -3.84         -226.175227             +0.0000
iter:  25  20:59:26  -6.34  -4.03         -226.175244             +0.0000
iter:  26  20:59:46  -6.83  -4.12         -226.175225             +0.0000
iter:  27  21:00:06  -7.13  -4.18         -226.175222             +0.0000
iter:  28  21:00:26  -6.96  -4.21         -226.175217             -0.0000
iter:  29  21:00:46  -6.84  -4.60         -226.175216             -0.0000
iter:  30  21:01:11  -8.33  -4.83         -226.175216             -0.0000
iter:  31  21:01:31  -7.27  -4.86         -226.175216             -0.0000
iter:  32  21:01:55  -7.83  -4.95    -2.46-226.175215             -0.0000
iter:  33  21:02:20  -8.41  -5.15    -2.96-226.175215             -0.0000
iter:  34  21:02:45  -8.66  -5.36    -3.09-226.175215             -0.0000
iter:  35  21:03:11  -8.79  -5.46    -3.43-226.175215             -0.0000
iter:  36  21:03:36  -9.67  -5.56    -3.73-226.175215             -0.0000
iter:  37  21:04:00  -9.68  -5.59    -3.22-226.175215             +0.0000
iter:  38  21:04:25 -10.03  -5.65    -3.83-226.175215             +0.0000
iter:  39  21:04:50  -9.32  -5.69    -3.46-226.175215             +0.0000
iter:  40  21:05:15  -9.81  -5.80    -3.77-226.175215             +0.0000
iter:  41  21:05:40 -10.10  -6.09    -4.07-226.175215             +0.0000
iter:  42  21:06:05 -10.72  -6.18    -3.84-226.175215             +0.0000
iter:  43  21:06:30 -10.48  -6.27    -3.93-226.175215             +0.0000
iter:  44  21:06:55 -10.95  -6.34    -4.50-226.175215             +0.0000
iter:  45  21:07:20 -10.56  -6.42    -4.03-226.175215             +0.0000
iter:  46  21:07:45 -10.98  -6.51    -4.24-226.175215             +0.0000
iter:  47  21:08:10 -12.26  -6.77    -5.05-226.175215             +0.0000
iter:  48  21:08:35 -11.77  -6.79    -4.46-226.175215             -0.0000
iter:  49  21:08:59 -11.45  -6.86    -4.71-226.175215             -0.0000
iter:  50  21:09:24 -12.18  -6.89    -4.74-226.175215             -0.0000
iter:  51  21:09:49 -12.03  -7.02    -4.79-226.175215             -0.0000
iter:  52  21:10:14 -12.15  -7.02    -4.82-226.175215             -0.0000
iter:  53  21:10:39 -12.48  -7.19    -4.88-226.175215             -0.0000
iter:  54  21:11:04 -12.90  -7.25    -5.30-226.175215             -0.0000
iter:  55  21:11:29 -12.34  -7.34    -4.88-226.175215             -0.0000
iter:  56  21:11:54 -12.88  -7.48    -5.29-226.175215             -0.0000
iter:  57  21:12:19 -13.95  -7.77    -5.95-226.175215             -0.0000
iter:  58  21:12:44 -14.16  -7.82    -5.50-226.175215             +0.0000
iter:  59  21:13:09 -13.69  -7.88    -5.80-226.175215             +0.0000
iter:  60  21:13:34 -14.29  -8.01    -6.03-226.175215             +0.0000

Converged after 60 iterations.

Dipole moment: (18.327218, -2.306913, -4.529853) |e|*Ang

Total magnetic moment: (0.000000, 0.000000, 0.000000)
Local magnetic moments:
   0 O  ( 0.000000,  0.000000, -0.001808)
   1 O  ( 0.000000,  0.000000,  0.001803)
   2 O  ( 0.000000,  0.000000,  0.001808)
   3 O  ( 0.000000,  0.000000, -0.001805)
   4 O  ( 0.000000,  0.000000,  0.001804)
   5 O  ( 0.000000,  0.000000, -0.001810)
   6 O  ( 0.000000,  0.000000, -0.001816)
   7 O  ( 0.000000,  0.000000,  0.001819)
   8 O  ( 0.000000,  0.000000,  0.031142)
   9 O  ( 0.000000,  0.000000, -0.031094)
  10 O  ( 0.000000,  0.000000, -0.031051)
  11 O  ( 0.000000,  0.000000,  0.031099)
  12 Mn ( 0.000000,  0.000000,  4.395755)
  13 Mn ( 0.000000,  0.000000, -4.395814)
  14 Mn ( 0.000000,  0.000000, -4.395747)
  15 Mn ( 0.000000,  0.000000,  4.395722)
  16 P  ( 0.000000,  0.000000,  0.000866)
  17 P  ( 0.000000,  0.000000, -0.000866)
  18 P  ( 0.000000,  0.000000, -0.000871)
  19 P  ( 0.000000,  0.000000,  0.000869)
  20 O  ( 0.000000,  0.000000,  0.028411)
  21 O  ( 0.000000,  0.000000, -0.028435)
  22 O  ( 0.000000,  0.000000, -0.028426)
  23 O  ( 0.000000,  0.000000,  0.028400)
  24 Li ( 0.000000,  0.000000,  0.000002)
  25 Li ( 0.000000,  0.000000,  0.000000)
  26 Li ( 0.000000,  0.000000, -0.000012)
  27 Li ( 0.000000,  0.000000,  0.000000)

Energy contributions relative to reference atoms: (reference = -196157.275402)

Kinetic:       +277.625516
Potential:     -240.967690
External:        +0.000000
XC:            -264.721476
Entropy (-ST):   -0.000000
Local:           +1.888435
Free energy:   -226.175215
Extrapolated:  -226.175215

Spin contamination: 9.455315 electrons
Showing only first 2 kpts
                      Up                     Down
 Kpt  Band  Eigenvalues  Occupancy  Eigenvalues  Occupancy
  0    88      6.53054    1.00000      6.53045    1.00000
  0    89      6.56411    1.00000      6.56406    1.00000
  0    90      8.42683    0.00000      8.42667    0.00000
  0    91      8.44843    0.00000      8.44827    0.00000

  1    88      6.56896    1.00000      6.56892    1.00000
  1    89      6.59611    1.00000      6.59597    1.00000
  1    90      8.38309    0.00000      8.38308    0.00000
  1    91      8.40518    0.00000      8.40528    0.00000

Fermi level: 7.45411

Gap: 1.699 eV
Transition (v -> c):
  (s=0, k=74, n=89, [0.08, -0.42, 0.12]) -> (s=0, k=85, n=90, [0.08, 0.08, -0.12])
Writing to born-0.01-26z-.gpw (mode='all')