User:   madkru@i013.nifl.fysik.dtu.dk
Date:   Tue Mar 23 01:13:25 2021
Arch:   x86_64
Pid:    27943
Python: 3.7.4
gpaw:   /home/niflheim/madkru/venv_folder/gpaw/gpaw (d0d1ca1c71)
_gpaw:  /home/niflheim/madkru/venv_folder/gpaw/build/lib.linux-x86_64-ivybridge-3.7/
        _gpaw.cpython-37m-x86_64-linux-gnu.so (4fd39e8b1e)
ase:    /home/niflheim/madkru/venv_folder/ase/ase (version 3.21.0b1-7e6c206a91)
numpy:  /home/niflheim/madkru/venv_folder/lib/python3.7/site-packages/numpy (version 1.19.4)
scipy:  /home/niflheim/madkru/venv_folder/lib/python3.7/site-packages/scipy (version 1.5.4)
units:  Angstrom and eV
cores: 32
OMP_NUM_THREADS: 1

Input parameters:
  convergence: {bands: occupied,
                density: 0.0001,
                eigenstates: 4e-08,
                energy: 0.0005,
                forces: 1e-06}
  kpts: [6 6 4]
  mode: {ecut: 600.0,
         gammacentered: False,
         name: pw}
  occupations: {fixmagmom: False,
                name: fermi-dirac,
                width: 0.001}
  symmetry: {point_group: False,
             time_reversal: False}

System changes: positions, numbers, cell, pbc, initial_charges, initial_magmoms

Initialize ...

O-setup:
  name: Oxygen
  id: 9b9d51c344dea68c822856295a461509
  Z: 8.0
  valence: 6
  core: 2
  charge: 0.0
  file: /home/modules/software/GPAW-setups/0.9.20000/O.LDA.gz
  compensation charges: gauss, rc=0.21, lmax=2
  cutoffs: 1.17(filt), 0.83(core),
  valence states:
                energy  radius
    2s(2.00)   -23.752   0.688
    2p(4.00)    -9.195   0.598
    *s           3.459   0.688
    *p          18.016   0.598
    *d           0.000   0.619

  Using partial waves for O as LCAO basis

Mn-setup:
  name: Manganese
  id: 0d715a8018be061a6e9ea6f2d364ac92
  Z: 25.0
  valence: 15
  core: 10
  charge: 0.0
  file: /home/modules/software/GPAW-setups/0.9.20000/Mn.LDA.gz
  compensation charges: gauss, rc=0.38, lmax=2
  cutoffs: 2.14(filt), 0.86(core),
  valence states:
                energy  radius
    3s(2.00)   -85.387   1.275
    4s(2.00)    -5.282   1.275
    3p(6.00)   -54.493   1.281
    4p(0.00)    -1.471   1.281
    3d(5.00)    -7.009   1.138
    *d          20.203   1.138

[...]

P-setup:
  name: Phosphorus
  id: a5561c299094968922a179ab894d2e2d
  Z: 15.0
  valence: 5
  core: 10
  charge: 0.0
  file: /home/modules/software/GPAW-setups/0.9.20000/P.LDA.gz
  compensation charges: gauss, rc=0.30, lmax=2
  cutoffs: 1.69(filt), 1.81(core),
  valence states:
                energy  radius
    3s(2.00)   -14.015   0.953
    3p(3.00)    -5.596   0.953
    *s          13.197   0.953
    *p          21.615   0.953
    *d           0.000   0.953

[...]

Li-setup:
  name: Lithium
  id: b73562207f97a71b6967473b66fe8b65
  Z: 3.0
  valence: 1
  core: 2
  charge: 0.0
  file: /home/modules/software/GPAW-setups/0.9.20000/Li.LDA.gz
  compensation charges: gauss, rc=0.33, lmax=2
  cutoffs: 1.91(filt), 2.55(core),
  valence states:
                energy  radius
    2s(1.00)    -2.874   1.058
    2p(0.00)    -1.126   1.058
    *s          24.338   1.058

  Using partial waves for Li as LCAO basis

Reference energy: -196157.275402

Spin-polarized calculation.
Magnetic moment: 0.000000

Convergence criteria:
  Maximum total energy change: 0.0005 eV / electron
  Maximum integral of absolute density change: 0.0001 electrons
  Maximum integral of absolute eigenstate change: 4e-08 eV^2
  Maximum change in atomic force: 1e-06 eV / Ang
  Maximum number of iterations: 333

Symmetries present (total): 1

  ( 1  0  0)
  ( 0  1  0)
  ( 0  0  1)

144 k-points: 6 x 6 x 4 Monkhorst-Pack grid
144 k-points in the irreducible part of the Brillouin zone
       k-points in crystal coordinates                weights
   0:    -0.41666667   -0.41666667   -0.37500000          1/144
   1:    -0.41666667   -0.41666667   -0.12500000          1/144
   2:    -0.41666667   -0.41666667    0.12500000          1/144
   3:    -0.41666667   -0.41666667    0.37500000          1/144
   4:    -0.41666667   -0.25000000   -0.37500000          1/144
   5:    -0.41666667   -0.25000000   -0.12500000          1/144
   6:    -0.41666667   -0.25000000    0.12500000          1/144
   7:    -0.41666667   -0.25000000    0.37500000          1/144
   8:    -0.41666667   -0.08333333   -0.37500000          1/144
   9:    -0.41666667   -0.08333333   -0.12500000          1/144
          ...
 143:     0.41666667    0.41666667    0.37500000          1/144

Wave functions: Plane wave expansion
  Cutoff energy: 600.000 eV
  Number of coefficients (min, max): 9132, 9161
  Pulay-stress correction: 0.000000 eV/Ang^3 (de/decut=0.000000)
  Using FFTW library
  ScaLapack parameters: grid=1x1, blocksize=None
  Wavefunction extrapolation:
    Improved wavefunction reuse through dual PAW basis

  Fermi-Dirac: width=0.0010 eV

Eigensolver
   Davidson(niter=2, smin=None, normalize=True)

Densities:
  Coarse grid: 60*35*27 grid
  Fine grid: 120*70*54 grid
  Total Charge: 0.000000

Density mixing:
  Method: difference
  Backend: pulay
  Linear mixing parameter: 0.05
  Mixing with 5 old densities
  Damping of long wave oscillations: 50

Hamiltonian:
  XC and Coulomb potentials evaluated on a 120*70*54 grid
  Using the LDA Exchange-Correlation functional

Total number of cores used: 32
Parallelization over k-points: 16
Domain decomposition: 2 x 1 x 1

Number of atoms: 28
Number of atomic orbitals: 148
Number of bands in calculation: 112
Number of valence electrons: 180
Bands to converge: occupied

... initialized

Initializing position-dependent things.

Density initialized from atomic densities
Creating initial wave functions:
  112 bands from LCAO basis set

               O     O  P  O
            PO           OMn     O
                  O          MO
            O        Li O
             Mn  Mn          OP
         O       O Li O
         Li     O P         O
       Li

Positions:
   0 O     -1.280122   -2.495595   -1.112331    ( 0.0000,  0.0000,  0.0000)
   1 O     -3.023238    2.918858    1.191723    ( 0.0000,  0.0000,  0.0000)
   2 O      1.997451    0.467212    1.441442    ( 0.0000,  0.0000,  0.0000)
   3 O      3.740343   -0.043905   -0.862614    ( 0.0000,  0.0000,  0.0000)
   4 O      1.997419    2.918835    1.441465    ( 0.0000,  0.0000,  0.0000)
   5 O      3.740372   -2.495531   -0.862587    ( 0.0000,  0.0000,  0.0000)
   6 O     -1.280154   -0.043891   -1.112309    ( 0.0000,  0.0000,  0.0000)
   7 O     -3.023210    0.467136    1.191750    ( 0.0000,  0.0000,  0.0000)
   8 O     -4.147405   -1.269737   -0.856207    ( 0.0000,  0.0000,  0.0000)
   9 O     -0.155894    1.682986    1.447725    ( 0.0000,  0.0000,  0.0000)
  10 O      4.864578    1.693016    1.185324    ( 0.0000,  0.0000,  0.0000)
  11 O      0.873163   -1.269706   -1.118625    ( 0.0000,  0.0000,  0.0000)
  12 Mn    -2.437108   -1.269902    0.302197    ( 0.0000,  0.0000,  1.0000)
  13 Mn    -1.866187    1.693156   -2.001927    ( 0.0000,  0.0000, -1.0000)
  14 Mn     3.154299    1.693181    0.026917    ( 0.0000,  0.0000, -1.0000)
  15 Mn     2.583444   -1.269877    2.331074    ( 0.0000,  0.0000,  1.0000)
  16 P     -0.543052   -1.269720   -1.734187    ( 0.0000,  0.0000,  0.0000)
  17 P     -3.760282    1.692974    0.569859    ( 0.0000,  0.0000,  0.0000)
  18 P      1.260300    1.693000    2.063344    ( 0.0000,  0.0000,  0.0000)
  19 P      4.477470   -1.269695   -0.240696    ( 0.0000,  0.0000,  0.0000)
  20 O     -0.544413   -1.269738    1.348523    ( 0.0000,  0.0000,  0.0000)
  21 O     -3.758895    1.692992   -0.955558    ( 0.0000,  0.0000,  0.0000)
  22 O      1.261690    1.693018   -1.019367    ( 0.0000,  0.0000,  0.0000)
  23 O      4.476045   -1.269713    1.284716    ( 0.0000,  0.0000,  0.0000)
  24 Li    -4.662027   -2.751322   -2.139440    ( 0.0000,  0.0000,  0.0000)
  25 Li     0.358703   -2.751277    0.164614    ( 0.0000,  0.0000,  0.0000)
  26 Li    -4.662011    0.211617   -2.139439    ( 0.0000,  0.0000,  0.0000)
  27 Li     0.358720    0.211628    0.164615    ( 0.0000,  0.0000,  0.0000)

Unit cell:
           periodic     x           y           z      points  spacing
  1. axis:    yes   10.041096    0.000054   -0.000022    60     0.1674
  2. axis:    yes    0.000032    5.925857    0.000001    35     0.1693
  3. axis:    yes   -0.000010    0.000001    4.608134    27     0.1707

  Lengths:  10.041096   5.925857   4.608134
  Angles:   89.999974  90.000250  89.999381

Effective grid spacing dv^(1/3) = 0.1691

                     log10-error:           total        iterations:
           time      wfs    density  force  energy       poisson  magmom
iter:   1  01:16:32                       -233.730121             +0.0000
iter:   2  01:17:08  -0.47  -0.95         -231.549823             +0.0021
iter:   3  01:17:44  -0.61  -1.00         -220.803370             +0.0022
iter:   4  01:18:20  -1.19  -1.31         -220.903227             +0.3147
iter:   5  01:18:57  -2.12  -1.40         -222.873673             +0.1695
iter:   6  01:19:33  -2.19  -1.38         -223.687526             +0.2146
iter:   7  01:20:09  -2.17  -1.53         -223.846323             -0.2136
iter:   8  01:20:45  -2.49  -1.67         -225.597201             -0.5509
iter:   9  01:21:22  -2.34  -1.90         -226.442989             -0.2215
iter:  10  01:21:58  -2.23  -2.00         -226.314822             -0.0644
iter:  11  01:22:34  -2.84  -2.12         -226.297436             -0.0286
iter:  12  01:23:10  -2.62  -2.17         -226.242437             -0.0056
iter:  13  01:23:47  -2.88  -2.48         -226.215225             -0.0057
iter:  14  01:24:23  -2.95  -2.79         -226.187006             -0.0017
iter:  15  01:24:59  -3.48  -2.90         -226.179789             -0.0009
iter:  16  01:25:35  -4.25  -3.19         -226.179630             -0.0003
iter:  17  01:26:11  -4.07  -3.27         -226.175457             -0.0000
iter:  18  01:26:48  -5.24  -3.40         -226.175181             -0.0001
iter:  19  01:27:24  -4.54  -3.47         -226.176675             -0.0000
iter:  20  01:28:00  -5.20  -3.67         -226.175446             -0.0000
iter:  21  01:28:36  -5.25  -3.81         -226.175075             -0.0000
iter:  22  01:29:12  -6.34  -3.95         -226.175079             -0.0000
iter:  23  01:29:49  -6.93  -3.99         -226.175094             +0.0000
iter:  24  01:30:25  -5.97  -4.07         -226.175067             +0.0000
iter:  25  01:31:01  -6.58  -4.15         -226.175063             +0.0000
iter:  26  01:31:47  -7.48  -4.24         -226.175056             -0.0000
iter:  27  01:32:23  -6.50  -4.43         -226.175063             +0.0000
iter:  28  01:32:59  -6.48  -4.62         -226.175050             +0.0000
iter:  29  01:33:35  -7.39  -4.82         -226.175050             +0.0000
iter:  30  01:34:20  -7.68  -5.04    -2.27-226.175050             +0.0000
iter:  31  01:35:06  -7.83  -5.17    -2.79-226.175049             +0.0000
iter:  32  01:35:51  -8.63  -5.42    -3.26-226.175049             +0.0000
iter:  33  01:36:36  -8.61  -5.58    -3.08-226.175049             +0.0000
iter:  34  01:37:22  -8.60  -5.65    -3.27-226.175049             +0.0000
iter:  35  01:38:07  -9.44  -5.84    -3.26-226.175049             +0.0000
iter:  36  01:38:53 -10.75  -6.08    -4.13-226.175049             -0.0000
iter:  37  01:39:38  -9.73  -6.10    -3.81-226.175049             -0.0000
iter:  38  01:40:23 -10.78  -6.26    -4.10-226.175049             -0.0000
iter:  39  01:41:09 -10.80  -6.34    -4.47-226.175049             -0.0000
iter:  40  01:41:54 -11.79  -6.46    -4.42-226.175049             -0.0000
iter:  41  01:42:39 -11.02  -6.52    -4.39-226.175049             -0.0000
iter:  42  01:43:25 -11.96  -7.02    -4.97-226.175049             -0.0000
iter:  43  01:44:10 -12.70  -7.07    -5.41-226.175049             -0.0000
iter:  44  01:44:55 -12.25  -7.08    -4.75-226.175049             +0.0000
iter:  45  01:45:41 -12.93  -7.22    -5.41-226.175049             -0.0000
iter:  46  01:46:26 -11.85  -7.25    -4.86-226.175049             -0.0000
iter:  47  01:47:12 -13.20  -7.46    -5.20-226.175049             -0.0000
iter:  48  01:47:57 -12.43  -7.57    -5.26-226.175049             -0.0000
iter:  49  01:48:42 -13.40  -7.67    -5.15-226.175049             -0.0000
iter:  50  01:49:28 -14.48  -7.92    -6.04-226.175049             -0.0000

Converged after 50 iterations.

Dipole moment: (18.327088, -2.302504, -4.524281) |e|*Ang

Total magnetic moment: (0.000000, 0.000000, -0.000000)
Local magnetic moments:
   0 O  ( 0.000000,  0.000000, -0.001846)
   1 O  ( 0.000000,  0.000000,  0.001807)
   2 O  ( 0.000000,  0.000000,  0.001794)
   3 O  ( 0.000000,  0.000000, -0.001808)
   4 O  ( 0.000000,  0.000000,  0.001821)
   5 O  ( 0.000000,  0.000000, -0.001805)
   6 O  ( 0.000000,  0.000000, -0.001776)
   7 O  ( 0.000000,  0.000000,  0.001815)
   8 O  ( 0.000000,  0.000000,  0.031098)
   9 O  ( 0.000000,  0.000000, -0.031098)
  10 O  ( 0.000000,  0.000000, -0.031096)
  11 O  ( 0.000000,  0.000000,  0.031096)
  12 Mn ( 0.000000,  0.000000,  4.395765)
  13 Mn ( 0.000000,  0.000000, -4.395783)
  14 Mn ( 0.000000,  0.000000, -4.395735)
  15 Mn ( 0.000000,  0.000000,  4.395751)
  16 P  ( 0.000000,  0.000000,  0.000866)
  17 P  ( 0.000000,  0.000000, -0.000864)
  18 P  ( 0.000000,  0.000000, -0.000870)
  19 P  ( 0.000000,  0.000000,  0.000870)
  20 O  ( 0.000000,  0.000000,  0.028417)
  21 O  ( 0.000000,  0.000000, -0.028416)
  22 O  ( 0.000000,  0.000000, -0.028420)
  23 O  ( 0.000000,  0.000000,  0.028419)
  24 Li ( 0.000000,  0.000000, -0.000000)
  25 Li ( 0.000000,  0.000000,  0.000022)
  26 Li ( 0.000000,  0.000000,  0.000000)
  27 Li ( 0.000000,  0.000000, -0.000022)

Energy contributions relative to reference atoms: (reference = -196157.275402)

Kinetic:       +277.622513
Potential:     -240.965292
External:        +0.000000
XC:            -264.720739
Entropy (-ST):   -0.000000
Local:           +1.888469
Free energy:   -226.175049
Extrapolated:  -226.175049

Spin contamination: 9.455313 electrons
Showing only first 2 kpts
                      Up                     Down
 Kpt  Band  Eigenvalues  Occupancy  Eigenvalues  Occupancy
  0    88      6.53055    0.00694      6.53066    0.00694
  0    89      6.56405    0.00694      6.56393    0.00694
  0    90      8.42674    0.00000      8.42676    0.00000
  0    91      8.44832    0.00000      8.44840    0.00000

  1    88      6.56896    0.00694      6.56890    0.00694
  1    89      6.59604    0.00694      6.59609    0.00694
  1    90      8.38305    0.00000      8.38309    0.00000
  1    91      8.40522    0.00000      8.40527    0.00000

Fermi level: 7.60518

Gap: 1.699 eV
Transition (v -> c):
  (s=0, k=50, n=89, [-0.08, -0.42, 0.12]) -> (s=0, k=57, n=90, [-0.08, -0.08, -0.12])
Writing to born-0.01-9y-.gpw (mode='all')