User:   madkru@i013.nifl.fysik.dtu.dk
Date:   Sun Mar 21 10:59:08 2021
Arch:   x86_64
Pid:    27943
Python: 3.7.4
gpaw:   /home/niflheim/madkru/venv_folder/gpaw/gpaw (d0d1ca1c71)
_gpaw:  /home/niflheim/madkru/venv_folder/gpaw/build/lib.linux-x86_64-ivybridge-3.7/
        _gpaw.cpython-37m-x86_64-linux-gnu.so (4fd39e8b1e)
ase:    /home/niflheim/madkru/venv_folder/ase/ase (version 3.21.0b1-7e6c206a91)
numpy:  /home/niflheim/madkru/venv_folder/lib/python3.7/site-packages/numpy (version 1.19.4)
scipy:  /home/niflheim/madkru/venv_folder/lib/python3.7/site-packages/scipy (version 1.5.4)
units:  Angstrom and eV
cores: 32
OMP_NUM_THREADS: 1

Input parameters:
  convergence: {bands: occupied,
                density: 0.0001,
                eigenstates: 4e-08,
                energy: 0.0005,
                forces: 1e-06}
  kpts: [6 6 4]
  mode: {ecut: 600.0,
         gammacentered: False,
         name: pw}
  occupations: {fixmagmom: False,
                name: fermi-dirac,
                width: 0.001}
  symmetry: {point_group: False,
             time_reversal: False}

System changes: positions, numbers, cell, pbc, initial_charges, initial_magmoms

Initialize ...

O-setup:
  name: Oxygen
  id: 9b9d51c344dea68c822856295a461509
  Z: 8.0
  valence: 6
  core: 2
  charge: 0.0
  file: /home/modules/software/GPAW-setups/0.9.20000/O.LDA.gz
  compensation charges: gauss, rc=0.21, lmax=2
  cutoffs: 1.17(filt), 0.83(core),
  valence states:
                energy  radius
    2s(2.00)   -23.752   0.688
    2p(4.00)    -9.195   0.598
    *s           3.459   0.688
    *p          18.016   0.598
    *d           0.000   0.619

  Using partial waves for O as LCAO basis

Mn-setup:
  name: Manganese
  id: 0d715a8018be061a6e9ea6f2d364ac92
  Z: 25.0
  valence: 15
  core: 10
  charge: 0.0
  file: /home/modules/software/GPAW-setups/0.9.20000/Mn.LDA.gz
  compensation charges: gauss, rc=0.38, lmax=2
  cutoffs: 2.14(filt), 0.86(core),
  valence states:
                energy  radius
    3s(2.00)   -85.387   1.275
    4s(2.00)    -5.282   1.275
    3p(6.00)   -54.493   1.281
    4p(0.00)    -1.471   1.281
    3d(5.00)    -7.009   1.138
    *d          20.203   1.138

[...]

P-setup:
  name: Phosphorus
  id: a5561c299094968922a179ab894d2e2d
  Z: 15.0
  valence: 5
  core: 10
  charge: 0.0
  file: /home/modules/software/GPAW-setups/0.9.20000/P.LDA.gz
  compensation charges: gauss, rc=0.30, lmax=2
  cutoffs: 1.69(filt), 1.81(core),
  valence states:
                energy  radius
    3s(2.00)   -14.015   0.953
    3p(3.00)    -5.596   0.953
    *s          13.197   0.953
    *p          21.615   0.953
    *d           0.000   0.953

[...]

Li-setup:
  name: Lithium
  id: b73562207f97a71b6967473b66fe8b65
  Z: 3.0
  valence: 1
  core: 2
  charge: 0.0
  file: /home/modules/software/GPAW-setups/0.9.20000/Li.LDA.gz
  compensation charges: gauss, rc=0.33, lmax=2
  cutoffs: 1.91(filt), 2.55(core),
  valence states:
                energy  radius
    2s(1.00)    -2.874   1.058
    2p(0.00)    -1.126   1.058
    *s          24.338   1.058

  Using partial waves for Li as LCAO basis

Reference energy: -196157.275402

Spin-polarized calculation.
Magnetic moment: 0.000000

Convergence criteria:
  Maximum total energy change: 0.0005 eV / electron
  Maximum integral of absolute density change: 0.0001 electrons
  Maximum integral of absolute eigenstate change: 4e-08 eV^2
  Maximum change in atomic force: 1e-06 eV / Ang
  Maximum number of iterations: 333

Symmetries present (total): 1

  ( 1  0  0)
  ( 0  1  0)
  ( 0  0  1)

144 k-points: 6 x 6 x 4 Monkhorst-Pack grid
144 k-points in the irreducible part of the Brillouin zone
       k-points in crystal coordinates                weights
   0:    -0.41666667   -0.41666667   -0.37500000          1/144
   1:    -0.41666667   -0.41666667   -0.12500000          1/144
   2:    -0.41666667   -0.41666667    0.12500000          1/144
   3:    -0.41666667   -0.41666667    0.37500000          1/144
   4:    -0.41666667   -0.25000000   -0.37500000          1/144
   5:    -0.41666667   -0.25000000   -0.12500000          1/144
   6:    -0.41666667   -0.25000000    0.12500000          1/144
   7:    -0.41666667   -0.25000000    0.37500000          1/144
   8:    -0.41666667   -0.08333333   -0.37500000          1/144
   9:    -0.41666667   -0.08333333   -0.12500000          1/144
          ...
 143:     0.41666667    0.41666667    0.37500000          1/144

Wave functions: Plane wave expansion
  Cutoff energy: 600.000 eV
  Number of coefficients (min, max): 9132, 9161
  Pulay-stress correction: 0.000000 eV/Ang^3 (de/decut=0.000000)
  Using FFTW library
  ScaLapack parameters: grid=1x1, blocksize=None
  Wavefunction extrapolation:
    Improved wavefunction reuse through dual PAW basis

  Fermi-Dirac: width=0.0010 eV

Eigensolver
   Davidson(niter=2, smin=None, normalize=True)

Densities:
  Coarse grid: 60*35*27 grid
  Fine grid: 120*70*54 grid
  Total Charge: 0.000000

Density mixing:
  Method: difference
  Backend: pulay
  Linear mixing parameter: 0.05
  Mixing with 5 old densities
  Damping of long wave oscillations: 50

Hamiltonian:
  XC and Coulomb potentials evaluated on a 120*70*54 grid
  Using the LDA Exchange-Correlation functional

Total number of cores used: 32
Parallelization over k-points: 16
Domain decomposition: 2 x 1 x 1

Number of atoms: 28
Number of atomic orbitals: 148
Number of bands in calculation: 112
Number of valence electrons: 180
Bands to converge: occupied

... initialized

Initializing position-dependent things.

Density initialized from atomic densities
Creating initial wave functions:
  112 bands from LCAO basis set

               O     O  P  O
            PO           OMn     O
                  O          MO
            O        Li O
             Mn  Mn          OP
         O       O Li O
         Li     O P         O
       Li

Positions:
   0 O     -1.280122   -2.495595   -1.112331    ( 0.0000,  0.0000,  0.0000)
   1 O     -3.023238    2.918858    1.181723    ( 0.0000,  0.0000,  0.0000)
   2 O      1.997451    0.467212    1.441442    ( 0.0000,  0.0000,  0.0000)
   3 O      3.740343   -0.043905   -0.862614    ( 0.0000,  0.0000,  0.0000)
   4 O      1.997419    2.918835    1.441465    ( 0.0000,  0.0000,  0.0000)
   5 O      3.740372   -2.495531   -0.862587    ( 0.0000,  0.0000,  0.0000)
   6 O     -1.280154   -0.043891   -1.112309    ( 0.0000,  0.0000,  0.0000)
   7 O     -3.023210    0.467136    1.191750    ( 0.0000,  0.0000,  0.0000)
   8 O     -4.147405   -1.269737   -0.856207    ( 0.0000,  0.0000,  0.0000)
   9 O     -0.155894    1.692986    1.447725    ( 0.0000,  0.0000,  0.0000)
  10 O      4.864578    1.693016    1.185324    ( 0.0000,  0.0000,  0.0000)
  11 O      0.873163   -1.269706   -1.118625    ( 0.0000,  0.0000,  0.0000)
  12 Mn    -2.437108   -1.269902    0.302197    ( 0.0000,  0.0000,  1.0000)
  13 Mn    -1.866187    1.693156   -2.001927    ( 0.0000,  0.0000, -1.0000)
  14 Mn     3.154299    1.693181    0.026917    ( 0.0000,  0.0000, -1.0000)
  15 Mn     2.583444   -1.269877    2.331074    ( 0.0000,  0.0000,  1.0000)
  16 P     -0.543052   -1.269720   -1.734187    ( 0.0000,  0.0000,  0.0000)
  17 P     -3.760282    1.692974    0.569859    ( 0.0000,  0.0000,  0.0000)
  18 P      1.260300    1.693000    2.063344    ( 0.0000,  0.0000,  0.0000)
  19 P      4.477470   -1.269695   -0.240696    ( 0.0000,  0.0000,  0.0000)
  20 O     -0.544413   -1.269738    1.348523    ( 0.0000,  0.0000,  0.0000)
  21 O     -3.758895    1.692992   -0.955558    ( 0.0000,  0.0000,  0.0000)
  22 O      1.261690    1.693018   -1.019367    ( 0.0000,  0.0000,  0.0000)
  23 O      4.476045   -1.269713    1.284716    ( 0.0000,  0.0000,  0.0000)
  24 Li    -4.662027   -2.751322   -2.139440    ( 0.0000,  0.0000,  0.0000)
  25 Li     0.358703   -2.751277    0.164614    ( 0.0000,  0.0000,  0.0000)
  26 Li    -4.662011    0.211617   -2.139439    ( 0.0000,  0.0000,  0.0000)
  27 Li     0.358720    0.211628    0.164615    ( 0.0000,  0.0000,  0.0000)

Unit cell:
           periodic     x           y           z      points  spacing
  1. axis:    yes   10.041096    0.000054   -0.000022    60     0.1674
  2. axis:    yes    0.000032    5.925857    0.000001    35     0.1693
  3. axis:    yes   -0.000010    0.000001    4.608134    27     0.1707

  Lengths:  10.041096   5.925857   4.608134
  Angles:   89.999974  90.000250  89.999381

Effective grid spacing dv^(1/3) = 0.1691

                     log10-error:           total        iterations:
           time      wfs    density  force  energy       poisson  magmom
iter:   1  11:02:08                       -233.725031             +0.0000
iter:   2  11:02:44  -0.47  -0.95         -231.551831             +0.0017
iter:   3  11:03:20  -0.60  -1.00         -220.827046             +0.0017
iter:   4  11:03:57  -1.21  -1.30         -221.416484             +0.4069
iter:   5  11:04:33  -2.15  -1.38         -222.426304             +0.2314
iter:   6  11:05:10  -2.22  -1.38         -224.323035             +0.0019
iter:   7  11:05:46  -2.16  -1.50         -224.394706             -0.6615
iter:   8  11:06:23  -2.46  -1.63         -225.745880             -1.0545
iter:   9  11:06:59  -2.36  -1.89         -226.436098             -0.4528
iter:  10  11:07:35  -2.10  -2.10         -226.260149             -0.1297
iter:  11  11:08:12  -2.94  -2.28         -226.268669             -0.0714
iter:  12  11:08:48  -2.32  -2.33         -226.273131             +0.0193
iter:  13  11:09:24  -2.84  -2.67         -226.192032             -0.0125
iter:  14  11:10:01  -3.37  -2.84         -226.199622             -0.0042
iter:  15  11:10:37  -3.16  -2.83         -226.177122             -0.0020
iter:  16  11:11:13  -4.12  -3.24         -226.177529             -0.0011
iter:  17  11:11:49  -4.38  -3.28         -226.176220             -0.0001
iter:  18  11:12:26  -4.14  -3.35         -226.175681             -0.0001
iter:  19  11:13:02  -4.89  -3.59         -226.174630             -0.0000
iter:  20  11:13:38  -5.02  -3.70         -226.174327             -0.0001
iter:  21  11:14:14  -5.70  -4.08         -226.174841             -0.0000
iter:  22  11:14:50  -5.99  -4.17         -226.174819             -0.0000
iter:  23  11:15:27  -6.58  -4.20         -226.174817             -0.0000
iter:  24  11:16:03  -7.35  -4.29         -226.174816             -0.0000
iter:  25  11:16:39  -6.54  -4.36         -226.174809             -0.0000
iter:  26  11:17:15  -6.65  -4.58         -226.174816             -0.0000
iter:  27  11:17:52  -6.42  -4.65         -226.174813             -0.0000
iter:  28  11:18:28  -7.17  -4.77         -226.174808             -0.0000
iter:  29  11:19:13  -8.20  -5.19         -226.174807             -0.0000
iter:  30  11:19:59  -8.70  -5.22    -3.34-226.174807             +0.0000
iter:  31  11:20:44  -8.74  -5.28    -3.42-226.174807             +0.0000
iter:  32  11:21:29  -9.28  -5.37    -3.60-226.174807             +0.0000
iter:  33  11:22:14  -9.43  -5.41    -3.00-226.174807             +0.0000
iter:  34  11:23:00  -9.82  -5.54    -3.64-226.174807             -0.0000
iter:  35  11:23:45  -9.35  -5.58    -3.54-226.174807             -0.0000
iter:  36  11:24:30  -9.75  -5.75    -3.45-226.174807             -0.0000
iter:  37  11:25:16 -10.34  -5.83    -3.69-226.174807             -0.0000
iter:  38  11:26:01 -10.31  -5.88    -4.52-226.174807             -0.0000
iter:  39  11:26:46  -9.95  -5.94    -3.67-226.174807             -0.0000
iter:  40  11:27:31 -10.60  -6.11    -4.19-226.174807             -0.0000
iter:  41  11:28:16  -9.90  -6.18    -3.81-226.174807             -0.0000
iter:  42  11:29:02 -10.99  -6.48    -4.56-226.174807             -0.0000
iter:  43  11:29:47 -11.13  -6.55    -4.78-226.174807             -0.0000
iter:  44  11:30:32 -11.07  -6.63    -4.28-226.174807             -0.0000
iter:  45  11:31:17 -10.99  -6.76    -4.40-226.174807             +0.0000
iter:  46  11:32:03 -12.10  -7.10    -5.24-226.174807             -0.0000
iter:  47  11:32:48 -11.94  -7.15    -4.79-226.174807             -0.0000
iter:  48  11:33:33 -12.32  -7.24    -4.99-226.174807             -0.0000
iter:  49  11:34:18 -12.47  -7.38    -5.01-226.174807             -0.0000
iter:  50  11:35:03 -12.83  -7.37    -5.15-226.174807             -0.0000
iter:  51  11:35:49 -12.75  -7.53    -5.35-226.174807             -0.0000
iter:  52  11:36:34 -14.06  -7.73    -6.18-226.174807             -0.0000

Converged after 52 iterations.

Dipole moment: (18.327769, -2.306185, -4.526707) |e|*Ang

Total magnetic moment: (0.000000, 0.000000, -0.000000)
Local magnetic moments:
   0 O  ( 0.000000,  0.000000, -0.001760)
   1 O  ( 0.000000,  0.000000,  0.002091)
   2 O  ( 0.000000,  0.000000,  0.001819)
   3 O  ( 0.000000,  0.000000, -0.001796)
   4 O  ( 0.000000,  0.000000,  0.001809)
   5 O  ( 0.000000,  0.000000, -0.001793)
   6 O  ( 0.000000,  0.000000, -0.001955)
   7 O  ( 0.000000,  0.000000,  0.001829)
   8 O  ( 0.000000,  0.000000,  0.031153)
   9 O  ( 0.000000,  0.000000, -0.031077)
  10 O  ( 0.000000,  0.000000, -0.031002)
  11 O  ( 0.000000,  0.000000,  0.031089)
  12 Mn ( 0.000000,  0.000000,  4.395311)
  13 Mn ( 0.000000,  0.000000, -4.396313)
  14 Mn ( 0.000000,  0.000000, -4.395718)
  15 Mn ( 0.000000,  0.000000,  4.395774)
  16 P  ( 0.000000,  0.000000,  0.000873)
  17 P  ( 0.000000,  0.000000, -0.000653)
  18 P  ( 0.000000,  0.000000, -0.000859)
  19 P  ( 0.000000,  0.000000,  0.000878)
  20 O  ( 0.000000,  0.000000,  0.028439)
  21 O  ( 0.000000,  0.000000, -0.028419)
  22 O  ( 0.000000,  0.000000, -0.028416)
  23 O  ( 0.000000,  0.000000,  0.028432)
  24 Li ( 0.000000,  0.000000,  0.000007)
  25 Li ( 0.000000,  0.000000, -0.000001)
  26 Li ( 0.000000,  0.000000,  0.000001)
  27 Li ( 0.000000,  0.000000,  0.000001)

Energy contributions relative to reference atoms: (reference = -196157.275402)

Kinetic:       +277.876321
Potential:     -241.161160
External:        +0.000000
XC:            -264.777603
Entropy (-ST):   -0.000000
Local:           +1.887635
Free energy:   -226.174807
Extrapolated:  -226.174807

Spin contamination: 9.455465 electrons
Showing only first 2 kpts
                      Up                     Down
 Kpt  Band  Eigenvalues  Occupancy  Eigenvalues  Occupancy
  0    88      6.53181    0.00694      6.52786    0.00694
  0    89      6.56574    0.00694      6.56230    0.00694
  0    90      8.42419    0.00000      8.42620    0.00000
  0    91      8.44622    0.00000      8.44785    0.00000

  1    88      6.57012    0.00694      6.56594    0.00694
  1    89      6.59739    0.00694      6.59417    0.00694
  1    90      8.38096    0.00000      8.38269    0.00000
  1    91      8.40350    0.00000      8.40487    0.00000

Fermi level: 7.73933

Gap: 1.697 eV
Transition (v -> c):
  (s=0, k=49, n=89, [-0.08, -0.42, -0.12]) -> (s=0, k=57, n=90, [-0.08, -0.08, -0.12])
Writing to born-0.01-1z-.gpw (mode='all')