User:   madkru@g054.nifl.fysik.dtu.dk
Date:   Wed Mar 17 18:08:39 2021
Arch:   x86_64
Pid:    7380
Python: 3.7.4
gpaw:   /home/niflheim/madkru/venv_folder/gpaw/gpaw (d0d1ca1c71)
_gpaw:  /home/niflheim/madkru/venv_folder/gpaw/build/lib.linux-x86_64-sandybridge-3.7/
        _gpaw.cpython-37m-x86_64-linux-gnu.so (4fd39e8b1e)
ase:    /home/niflheim/madkru/venv_folder/ase/ase (version 3.21.0b1-7e6c206a91)
numpy:  /home/niflheim/madkru/venv_folder/lib/python3.7/site-packages/numpy (version 1.19.4)
scipy:  /home/niflheim/madkru/venv_folder/lib/python3.7/site-packages/scipy (version 1.5.4)
units:  Angstrom and eV
cores: 32
OMP_NUM_THREADS: 1

Input parameters:
  convergence: {forces: 1e-06}
  kpts: [6 6 4]
  mode: {ecut: 600.0,
         gammacentered: False,
         name: pw}
  occupations: {fixmagmom: False,
                name: fermi-dirac,
                width: 0.001}
  symmetry: {point_group: False}

System changes: positions, numbers, cell, pbc, initial_charges, initial_magmoms

Initialize ...

O-setup:
  name: Oxygen
  id: 9b9d51c344dea68c822856295a461509
  Z: 8.0
  valence: 6
  core: 2
  charge: 0.0
  file: /home/modules/software/GPAW-setups/0.9.20000/O.LDA.gz
  compensation charges: gauss, rc=0.21, lmax=2
  cutoffs: 1.17(filt), 0.83(core),
  valence states:
                energy  radius
    2s(2.00)   -23.752   0.688
    2p(4.00)    -9.195   0.598
    *s           3.459   0.688
    *p          18.016   0.598
    *d           0.000   0.619

  Using partial waves for O as LCAO basis

Mn-setup:
  name: Manganese
  id: 0d715a8018be061a6e9ea6f2d364ac92
  Z: 25.0
  valence: 15
  core: 10
  charge: 0.0
  file: /home/modules/software/GPAW-setups/0.9.20000/Mn.LDA.gz
  compensation charges: gauss, rc=0.38, lmax=2
  cutoffs: 2.14(filt), 0.86(core),
  valence states:
                energy  radius
    3s(2.00)   -85.387   1.275
    4s(2.00)    -5.282   1.275
    3p(6.00)   -54.493   1.281
    4p(0.00)    -1.471   1.281
    3d(5.00)    -7.009   1.138
    *d          20.203   1.138

[...]

P-setup:
  name: Phosphorus
  id: a5561c299094968922a179ab894d2e2d
  Z: 15.0
  valence: 5
  core: 10
  charge: 0.0
  file: /home/modules/software/GPAW-setups/0.9.20000/P.LDA.gz
  compensation charges: gauss, rc=0.30, lmax=2
  cutoffs: 1.69(filt), 1.81(core),
  valence states:
                energy  radius
    3s(2.00)   -14.015   0.953
    3p(3.00)    -5.596   0.953
    *s          13.197   0.953
    *p          21.615   0.953
    *d           0.000   0.953

[...]

Li-setup:
  name: Lithium
  id: b73562207f97a71b6967473b66fe8b65
  Z: 3.0
  valence: 1
  core: 2
  charge: 0.0
  file: /home/modules/software/GPAW-setups/0.9.20000/Li.LDA.gz
  compensation charges: gauss, rc=0.33, lmax=2
  cutoffs: 1.91(filt), 2.55(core),
  valence states:
                energy  radius
    2s(1.00)    -2.874   1.058
    2p(0.00)    -1.126   1.058
    *s          24.338   1.058

  Using partial waves for Li as LCAO basis

Reference energy: -196157.275402

Spin-polarized calculation.
Magnetic moment: 0.000000

Convergence criteria:
  Maximum total energy change: 0.0005 eV / electron
  Maximum integral of absolute density change: 0.0001 electrons
  Maximum integral of absolute eigenstate change: 4e-08 eV^2
  Maximum change in atomic force: 1e-06 eV / Ang
  Maximum number of iterations: 333

Symmetries present (total): 1

  ( 1  0  0)
  ( 0  1  0)
  ( 0  0  1)

144 k-points: 6 x 6 x 4 Monkhorst-Pack grid
72 k-points in the irreducible part of the Brillouin zone
       k-points in crystal coordinates                weights
   0:     0.08333333   -0.41666667   -0.37500000          2/144
   1:     0.08333333   -0.41666667   -0.12500000          2/144
   2:     0.08333333   -0.41666667    0.12500000          2/144
   3:     0.08333333   -0.41666667    0.37500000          2/144
   4:     0.08333333   -0.25000000   -0.37500000          2/144
   5:     0.08333333   -0.25000000   -0.12500000          2/144
   6:     0.08333333   -0.25000000    0.12500000          2/144
   7:     0.08333333   -0.25000000    0.37500000          2/144
   8:     0.08333333   -0.08333333   -0.37500000          2/144
   9:     0.08333333   -0.08333333   -0.12500000          2/144
          ...
  71:     0.41666667    0.41666667    0.37500000          2/144

Wave functions: Plane wave expansion
  Cutoff energy: 600.000 eV
  Number of coefficients (min, max): 9132, 9161
  Pulay-stress correction: 0.000000 eV/Ang^3 (de/decut=0.000000)
  Using FFTW library
  ScaLapack parameters: grid=1x1, blocksize=None
  Wavefunction extrapolation:
    Improved wavefunction reuse through dual PAW basis

  Fermi-Dirac: width=0.0010 eV

Eigensolver
   Davidson(niter=2, smin=None, normalize=True)

Densities:
  Coarse grid: 60*35*27 grid
  Fine grid: 120*70*54 grid
  Total Charge: 0.000000

Density mixing:
  Method: difference
  Backend: pulay
  Linear mixing parameter: 0.05
  Mixing with 5 old densities
  Damping of long wave oscillations: 50

Hamiltonian:
  XC and Coulomb potentials evaluated on a 120*70*54 grid
  Using the LDA Exchange-Correlation functional

Total number of cores used: 32
Parallelization over k-points: 32

Number of atoms: 28
Number of atomic orbitals: 148
Number of bands in calculation: 112
Number of valence electrons: 180
Bands to converge: occupied

... initialized

Initializing position-dependent things.

Density initialized from atomic densities
Creating initial wave functions:
  112 bands from LCAO basis set

               O     O  P  O
            PO           OMn     O
                  O          MO
            O        Li O
             Mn  Mn          OP
         O       O Li O
         Li     O P         O
       Li

Positions:
   0 O      3.381826    0.255721    1.027157    ( 0.0000,  0.0000,  0.0000)
   1 O      1.638710    5.670174    3.331211    ( 0.0000,  0.0000,  0.0000)
   2 O      6.659399    3.218528    3.580931    ( 0.0000,  0.0000,  0.0000)
   3 O      8.402291    2.707411    1.276874    ( 0.0000,  0.0000,  0.0000)
   4 O      6.659367    5.670151    3.580953    ( 0.0000,  0.0000,  0.0000)
   5 O      8.402320    0.255785    1.276901    ( 0.0000,  0.0000,  0.0000)
   6 O      3.381794    2.707426    1.027180    ( 0.0000,  0.0000,  0.0000)
   7 O      1.638738    3.218453    3.331239    ( 0.0000,  0.0000,  0.0000)
   8 O      0.514543    1.481579    1.283282    ( 0.0000,  0.0000,  0.0000)
   9 O      4.506054    4.444302    3.587213    ( 0.0000,  0.0000,  0.0000)
  10 O      9.526526    4.444333    3.324813    ( 0.0000,  0.0000,  0.0000)
  11 O      5.535111    1.481610    1.020863    ( 0.0000,  0.0000,  0.0000)
  12 Mn     2.224840    1.481415    2.441685    ( 0.0000,  0.0000,  1.0000)
  13 Mn     2.795761    4.444472    0.137561    ( 0.0000,  0.0000, -1.0000)
  14 Mn     7.816247    4.444498    2.166405    ( 0.0000,  0.0000, -1.0000)
  15 Mn     7.245392    1.481440    4.470562    ( 0.0000,  0.0000,  1.0000)
  16 P      4.118896    1.481596    0.405302    ( 0.0000,  0.0000,  0.0000)
  17 P      0.901666    4.444290    2.709347    ( 0.0000,  0.0000,  0.0000)
  18 P      5.922248    4.444317    4.202832    ( 0.0000,  0.0000,  0.0000)
  19 P      9.139418    1.481621    1.898793    ( 0.0000,  0.0000,  0.0000)
  20 O      4.117535    1.481578    3.488011    ( 0.0000,  0.0000,  0.0000)
  21 O      0.903053    4.444308    1.183930    ( 0.0000,  0.0000,  0.0000)
  22 O      5.923638    4.444334    1.120121    ( 0.0000,  0.0000,  0.0000)
  23 O      9.137993    1.481603    3.424205    ( 0.0000,  0.0000,  0.0000)
  24 Li    -0.000079   -0.000006    0.000048    ( 0.0000,  0.0000,  0.0000)
  25 Li     5.020651    0.000040    2.304102    ( 0.0000,  0.0000,  0.0000)
  26 Li    -0.000063    2.962934    0.000049    ( 0.0000,  0.0000,  0.0000)
  27 Li     5.020668    2.962944    2.304103    ( 0.0000,  0.0000,  0.0000)

Unit cell:
           periodic     x           y           z      points  spacing
  1. axis:    yes   10.041096    0.000054   -0.000022    60     0.1674
  2. axis:    yes    0.000032    5.925857    0.000001    35     0.1693
  3. axis:    yes   -0.000010    0.000001    4.608134    27     0.1707

  Lengths:  10.041096   5.925857   4.608134
  Angles:   89.999974  90.000250  89.999381

Effective grid spacing dv^(1/3) = 0.1691

                     log10-error:           total        iterations:
           time      wfs    density  force  energy       poisson  magmom
iter:   1  18:10:43                       -233.730516             -0.0000
iter:   2  18:11:07  -0.47  -0.95         -231.550176             -0.0000
iter:   3  18:11:31  -0.61  -1.00         -220.795773             -0.0000
iter:   4  18:11:54  -1.17  -1.31         -220.704762             +0.0138
iter:   5  18:12:18  -2.14  -1.41         -222.714102             -0.0113
iter:   6  18:12:42  -2.13  -1.39         -222.824498             +0.0271
iter:   7  18:13:05  -2.15  -1.56         -223.315619             -0.0013
iter:   8  18:13:29  -2.33  -1.87         -225.792995             +0.0028
iter:   9  18:13:52  -2.10  -2.00         -226.387664             +0.0016
iter:  10  18:14:16  -2.25  -2.06         -226.344929             +0.0005
iter:  11  18:14:40  -2.98  -2.18         -226.264678             +0.0003
iter:  12  18:15:03  -3.14  -2.32         -226.268790             +0.0001
iter:  13  18:15:27  -2.98  -2.44         -226.185694             +0.0000
iter:  14  18:15:51  -3.44  -2.86         -226.182561             +0.0000
iter:  15  18:16:14  -3.45  -3.02         -226.182574             +0.0000
iter:  16  18:16:38  -3.92  -3.05         -226.178549             +0.0000
iter:  17  18:17:02  -4.97  -3.39         -226.177548             +0.0000
iter:  18  18:17:25  -4.34  -3.44         -226.175541             +0.0000
iter:  19  18:17:49  -4.92  -3.51         -226.175613             +0.0000
iter:  20  18:18:12  -6.10  -3.67         -226.175605             +0.0000
iter:  21  18:18:36  -4.76  -3.71         -226.175800             -0.0000
iter:  22  18:19:00  -5.31  -3.71         -226.175505             +0.0000
iter:  23  18:19:23  -6.82  -4.06         -226.175481             +0.0000
iter:  24  18:19:47  -5.68  -4.12         -226.175473             +0.0000
iter:  25  18:20:11  -6.34  -4.21         -226.175457             +0.0000
iter:  26  18:20:34  -6.14  -4.37         -226.175455             +0.0000
iter:  27  18:20:58  -6.94  -4.42         -226.175443             +0.0000
iter:  28  18:21:21  -6.50  -4.58         -226.175453             +0.0000
iter:  29  18:21:45  -6.39  -4.69         -226.175444             +0.0000
iter:  30  18:22:15  -7.63  -5.01         -226.175441             +0.0000
iter:  31  18:22:46  -8.23  -5.24    -3.06-226.175440             +0.0000
iter:  32  18:23:17  -8.98  -5.32    -3.34-226.175440             +0.0000
iter:  33  18:23:48  -9.00  -5.42    -3.34-226.175440             +0.0000
iter:  34  18:24:19  -9.35  -5.49    -3.66-226.175440             +0.0000
iter:  35  18:24:50  -9.05  -5.68    -3.43-226.175440             -0.0000
iter:  36  18:25:21  -9.69  -5.83    -3.52-226.175440             -0.0000
iter:  37  18:25:52 -10.30  -6.11    -3.98-226.175440             -0.0000
iter:  38  18:26:23 -10.27  -6.27    -4.01-226.175440             -0.0000
iter:  39  18:26:54 -11.52  -6.34    -4.68-226.175440             -0.0000
iter:  40  18:27:25 -11.00  -6.36    -4.26-226.175440             -0.0000
iter:  41  18:27:56 -11.64  -6.48    -4.40-226.175440             -0.0000
iter:  42  18:28:27 -11.14  -6.55    -4.51-226.175440             -0.0000
iter:  43  18:28:58 -11.63  -6.65    -4.90-226.175440             -0.0000
iter:  44  18:29:29 -11.03  -6.69    -4.55-226.175440             -0.0000
iter:  45  18:30:00 -11.89  -6.93    -4.75-226.175440             -0.0000
iter:  46  18:30:31 -12.61  -7.08    -5.29-226.175440             -0.0000
iter:  47  18:31:02 -12.51  -7.15    -4.99-226.175440             -0.0000
iter:  48  18:31:33 -12.12  -7.50    -5.00-226.175440             -0.0000
iter:  49  18:32:04 -13.15  -7.63    -5.45-226.175440             -0.0000
iter:  50  18:32:35 -12.99  -7.77    -5.65-226.175440             -0.0000
iter:  51  18:33:06 -13.37  -7.74    -5.60-226.175440             -0.0000
iter:  52  18:33:37 -14.38  -7.84    -6.03-226.175440             -0.0000

Converged after 52 iterations.

Dipole moment: (0.000429, -0.000015, -0.000740) |e|*Ang

Total magnetic moment: (0.000000, 0.000000, -0.000000)
Local magnetic moments:
   0 O  ( 0.000000,  0.000000, -0.001808)
   1 O  ( 0.000000,  0.000000,  0.001809)
   2 O  ( 0.000000,  0.000000,  0.001810)
   3 O  ( 0.000000,  0.000000, -0.001809)
   4 O  ( 0.000000,  0.000000,  0.001805)
   5 O  ( 0.000000,  0.000000, -0.001804)
   6 O  ( 0.000000,  0.000000, -0.001814)
   7 O  ( 0.000000,  0.000000,  0.001814)
   8 O  ( 0.000000,  0.000000,  0.031098)
   9 O  ( 0.000000,  0.000000, -0.031097)
  10 O  ( 0.000000,  0.000000, -0.031096)
  11 O  ( 0.000000,  0.000000,  0.031096)
  12 Mn ( 0.000000,  0.000000,  4.395765)
  13 Mn ( 0.000000,  0.000000, -4.395783)
  14 Mn ( 0.000000,  0.000000, -4.395737)
  15 Mn ( 0.000000,  0.000000,  4.395752)
  16 P  ( 0.000000,  0.000000,  0.000866)
  17 P  ( 0.000000,  0.000000, -0.000864)
  18 P  ( 0.000000,  0.000000, -0.000871)
  19 P  ( 0.000000,  0.000000,  0.000870)
  20 O  ( 0.000000,  0.000000,  0.028417)
  21 O  ( 0.000000,  0.000000, -0.028416)
  22 O  ( 0.000000,  0.000000, -0.028420)
  23 O  ( 0.000000,  0.000000,  0.028419)
  24 Li ( 0.000000,  0.000000,  0.000000)
  25 Li ( 0.000000,  0.000000,  0.000000)
  26 Li ( 0.000000,  0.000000,  0.000000)
  27 Li ( 0.000000,  0.000000,  0.000000)

Energy contributions relative to reference atoms: (reference = -196157.275402)

Kinetic:       +277.623715
Potential:     -240.966406
External:        +0.000000
XC:            -264.721149
Entropy (-ST):   -0.000000
Local:           +1.888399
Free energy:   -226.175440
Extrapolated:  -226.175440

Spin contamination: 9.455210 electrons
Showing only first 2 kpts
                      Up                     Down
 Kpt  Band  Eigenvalues  Occupancy  Eigenvalues  Occupancy
  0    88      6.48832    0.01389      6.48830    0.01389
  0    89      6.61318    0.01389      6.61315    0.01389
  0    90      8.39272    0.00000      8.39275    0.00000
  0    91      8.47193    0.00000      8.47194    0.00000

  1    88      6.52819    0.01389      6.52817    0.01389
  1    89      6.62867    0.01389      6.62863    0.01389
  1    90      8.35458    0.00000      8.35460    0.00000
  1    91      8.43712    0.00000      8.43712    0.00000

Fermi level: 7.73837

Gap: 1.699 eV
Transition (v -> c):
  (s=0, k=21, n=89, [0.08, 0.42, -0.12]) -> (s=0, k=9, n=90, [0.08, -0.08, -0.12])
Writing to LiMnPO4.gpw (mode='')

Forces in eV/Ang:
  0 O    -0.00012    0.00012   -0.00042
  1 O     0.00033   -0.00039   -0.00006
  2 O    -0.00037   -0.00042    0.00058
  3 O     0.00025    0.00027    0.00025
  4 O    -0.00023    0.00055    0.00073
  5 O     0.00012   -0.00037    0.00035
  6 O     0.00002   -0.00026   -0.00027
  7 O     0.00021    0.00050    0.00004
  8 O     0.00015   -0.00010    0.00026
  9 O    -0.00043    0.00011    0.00077
 10 O    -0.00038    0.00010    0.00020
 11 O     0.00052   -0.00010   -0.00015
 12 Mn    0.00037   -0.00001   -0.00019
 13 Mn   -0.00033    0.00003   -0.00005
 14 Mn    0.00022    0.00001    0.00018
 15 Mn   -0.00025   -0.00003   -0.00025
 16 P    -0.00018   -0.00004    0.00018
 17 P    -0.00007    0.00006    0.00012
 18 P     0.00053    0.00004   -0.00044
 19 P    -0.00030   -0.00005   -0.00028
 20 O    -0.00011    0.00006    0.00065
 21 O     0.00024   -0.00007    0.00066
 22 O    -0.00029   -0.00006   -0.00103
 23 O     0.00025    0.00007   -0.00092
 24 Li    0.00018   -0.00015   -0.00023
 25 Li   -0.00025    0.00014   -0.00023
 26 Li    0.00018    0.00015   -0.00023
 27 Li   -0.00025   -0.00015   -0.00023

System changes: positions

[...]

Density initialized from wave functions

[...]

Gap: 1.697 eV
Transition (v -> c):
  (s=1, k=1, n=89, [0.08, -0.42, -0.12]) -> (s=1, k=13, n=90, [0.08, 0.08, -0.12])

[...]

               O     O  P  O
            PO           OMn     O
                  O          MO
            O        Li O
             Mn  On          OP
         O         Li O
         Li     O P         O
       Li

[...]

               O     O  P  O
            PO           OMn     O
                  O          MO
            O        Li O
             Mn  On          OP
         O         Li O
         Li     O P         O
       Li

[...]

Converged after 31 iterations.

Dipole moment: (0.003239, 0.000322, -0.001012) |e|*Ang

Total magnetic moment: (0.000000, 0.000000, -0.000000)
Local magnetic moments:
   0 O  ( 0.000000,  0.000000, -0.001810)
   1 O  ( 0.000000,  0.000000,  0.001806)
   2 O  ( 0.000000,  0.000000,  0.001784)
   3 O  ( 0.000000,  0.000000, -0.001811)
   4 O  ( 0.000000,  0.000000,  0.001802)
   5 O  ( 0.000000,  0.000000, -0.001807)
   6 O  ( 0.000000,  0.000000, -0.001839)
   7 O  ( 0.000000,  0.000000,  0.001811)
   8 O  ( 0.000000,  0.000000,  0.031057)
   9 O  ( 0.000000,  0.000000, -0.031051)
  10 O  ( 0.000000,  0.000000, -0.031136)
  11 O  ( 0.000000,  0.000000,  0.031142)
  12 Mn ( 0.000000,  0.000000,  4.395835)
  13 Mn ( 0.000000,  0.000000, -4.395837)
  14 Mn ( 0.000000,  0.000000, -4.395665)
  15 Mn ( 0.000000,  0.000000,  4.395696)
  16 P  ( 0.000000,  0.000000,  0.000852)
  17 P  ( 0.000000,  0.000000, -0.000857)
  18 P  ( 0.000000,  0.000000, -0.000885)
  19 P  ( 0.000000,  0.000000,  0.000878)
  20 O  ( 0.000000,  0.000000,  0.028406)
  21 O  ( 0.000000,  0.000000, -0.028407)
  22 O  ( 0.000000,  0.000000, -0.028431)
  23 O  ( 0.000000,  0.000000,  0.028428)
  24 Li ( 0.000000,  0.000000,  0.000000)
  25 Li ( 0.000000,  0.000000, -0.000001)
  26 Li ( 0.000000,  0.000000,  0.000000)
  27 Li ( 0.000000,  0.000000,  0.000027)

Energy contributions relative to reference atoms: (reference = -196157.275402)

Kinetic:       +277.624655
Potential:     -240.967024
External:        +0.000000
XC:            -264.721327
Entropy (-ST):   -0.000000
Local:           +1.888398
Free energy:   -226.175297
Extrapolated:  -226.175297

Spin contamination: 9.455209 electrons
Showing only first 2 kpts
                      Up                     Down
 Kpt  Band  Eigenvalues  Occupancy  Eigenvalues  Occupancy
  0    88      6.48828    0.01389      6.48815    0.01389
  0    89      6.61328    0.01389      6.61322    0.01389
  0    90      8.39260    0.00000      8.39247    0.00000
  0    91      8.47199    0.00000      8.47220    0.00000

  1    88      6.52815    0.01389      6.52797    0.01389
  1    89      6.62872    0.01389      6.62880    0.01389
  1    90      8.35444    0.00000      8.35432    0.00000
  1    91      8.43719    0.00000      8.43742    0.00000

Fermi level: 7.73837

Gap: 1.699 eV
Transition (v -> c):
  (s=0, k=2, n=89, [0.08, -0.42, 0.12]) -> (s=1, k=9, n=90, [0.08, -0.08, -0.12])

Forces in eV/Ang:
  0 O     0.00240   -0.00179    0.00054
  1 O    -0.00186   -0.00072   -0.00030
  2 O     0.00512   -0.00328    0.00003
  3 O    -0.00327    0.00166   -0.00003
  4 O     0.00232   -0.00136    0.00167
  5 O    -0.00207   -0.00069    0.00011
  6 O     0.00509   -0.00319   -0.00112
  7 O    -0.00330    0.00188   -0.00024
  8 O    -0.00451    0.00005    0.00059
  9 O     0.01239   -0.00208    0.00162
 10 O    -0.00504    0.00024    0.00052
 11 O     0.01333   -0.00231    0.00066
 12 Mn    0.00790    0.00426   -0.00057
 13 Mn    0.00185   -0.00411    0.00149
 14 Mn    0.00778    0.00434   -0.00019
 15 Mn    0.00190   -0.00418    0.00128
 16 P    -0.01685    0.01263    0.00167
 17 P     0.00679   -0.00158    0.00009
 18 P    -0.01626    0.01271    0.00106
 19 P     0.00656   -0.00172   -0.00030
 20 O     0.00650   -0.00122    0.00112
 21 O    -0.00224    0.00032    0.00077
 22 O     0.00640   -0.00128   -0.00064
 23 O    -0.00223    0.00047   -0.00081
 24 Li    0.00175   -0.00052   -0.00027
 25 Li   -0.00428    0.00048    0.00059
 26 Li    0.00227    0.00054   -0.00047
 27 Li   -0.02843   -0.00953   -0.00884

System changes: positions

Initializing position-dependent things.

Density initialized from wave functions

               O     O  P  O
            PO           OMn     O
                  O          MO
            O        Li O
             Mn  Mn          OP
         O       O Li O
         Li     O P         O
       Li

Positions:
   0 O      3.381826    0.255721    1.027157    ( 0.0000,  0.0000,  0.0000)
   1 O      1.638710    5.670174    3.331211    ( 0.0000,  0.0000,  0.0000)
   2 O      6.659399    3.218528    3.580931    ( 0.0000,  0.0000,  0.0000)
   3 O      8.402291    2.707411    1.276874    ( 0.0000,  0.0000,  0.0000)
   4 O      6.659367    5.670151    3.580953    ( 0.0000,  0.0000,  0.0000)
   5 O      8.402320    0.255785    1.276901    ( 0.0000,  0.0000,  0.0000)
   6 O      3.381794    2.707426    1.027180    ( 0.0000,  0.0000,  0.0000)
   7 O      1.638738    3.218453    3.331239    ( 0.0000,  0.0000,  0.0000)
   8 O      0.514543    1.481579    1.283282    ( 0.0000,  0.0000,  0.0000)
   9 O      4.506054    4.444302    3.587213    ( 0.0000,  0.0000,  0.0000)
  10 O      9.526526    4.444333    3.324813    ( 0.0000,  0.0000,  0.0000)
  11 O      5.535111    1.481610    1.020863    ( 0.0000,  0.0000,  0.0000)
  12 Mn     2.224840    1.481415    2.441685    ( 0.0000,  0.0000,  1.0000)
  13 Mn     2.795761    4.444472    0.137561    ( 0.0000,  0.0000, -1.0000)
  14 Mn     7.816247    4.444498    2.166405    ( 0.0000,  0.0000, -1.0000)
  15 Mn     7.245392    1.481440    4.470562    ( 0.0000,  0.0000,  1.0000)
  16 P      4.118896    1.481596    0.405302    ( 0.0000,  0.0000,  0.0000)
  17 P      0.901666    4.444290    2.709347    ( 0.0000,  0.0000,  0.0000)
  18 P      5.922248    4.444317    4.202832    ( 0.0000,  0.0000,  0.0000)
  19 P      9.139418    1.481621    1.898793    ( 0.0000,  0.0000,  0.0000)
  20 O      4.117535    1.481578    3.488011    ( 0.0000,  0.0000,  0.0000)
  21 O      0.903053    4.444308    1.183930    ( 0.0000,  0.0000,  0.0000)
  22 O      5.923638    4.444334    1.120121    ( 0.0000,  0.0000,  0.0000)
  23 O      9.137993    1.481603    3.424205    ( 0.0000,  0.0000,  0.0000)
  24 Li    -0.000079   -0.000006    0.000048    ( 0.0000,  0.0000,  0.0000)
  25 Li     5.020651    0.000040    2.304102    ( 0.0000,  0.0000,  0.0000)
  26 Li    -0.000063    2.962934    0.000049    ( 0.0000,  0.0000,  0.0000)
  27 Li     5.020668    2.952944    2.304103    ( 0.0000,  0.0000,  0.0000)

Unit cell:
           periodic     x           y           z      points  spacing
  1. axis:    yes   10.041096    0.000054   -0.000022    60     0.1674
  2. axis:    yes    0.000032    5.925857    0.000001    35     0.1693
  3. axis:    yes   -0.000010    0.000001    4.608134    27     0.1707

  Lengths:  10.041096   5.925857   4.608134
  Angles:   89.999974  90.000250  89.999381

Effective grid spacing dv^(1/3) = 0.1691

                     log10-error:           total        iterations:
           time      wfs    density  force  energy       poisson  magmom
iter:   1  18:00:44  -4.17                -226.175300             +0.0000
iter:   2  18:01:07  -5.46  -3.78         -226.175302             +0.0000
iter:   3  18:01:30  -5.32  -3.80         -226.175240             -0.0000
iter:   4  18:01:54  -6.70  -4.17         -226.175234             +0.0000
iter:   5  18:02:17  -6.35  -4.19         -226.175225             +0.0000
iter:   6  18:02:41  -6.61  -4.32         -226.175221             +0.0000
iter:   7  18:03:11  -7.88  -4.63         -226.175220             +0.0000
iter:   8  18:03:42  -7.57  -4.89    -2.39-226.175220             +0.0000
iter:   9  18:04:12  -7.67  -5.13    -2.15-226.175220             +0.0000
iter:  10  18:04:43  -7.98  -4.99    -2.11-226.175220             +0.0000
iter:  11  18:05:14  -8.99  -5.66    -3.74-226.175220             +0.0000
iter:  12  18:05:45  -9.49  -5.66    -3.20-226.175220             +0.0000
iter:  13  18:06:16 -10.02  -5.80    -3.34-226.175220             +0.0000
iter:  14  18:06:47  -9.58  -5.85    -3.45-226.175220             +0.0000
iter:  15  18:07:17  -9.83  -5.91    -3.44-226.175220             +0.0000
iter:  16  18:07:48 -10.75  -6.32    -3.99-226.175220             +0.0000
iter:  17  18:08:19 -11.34  -6.42    -3.93-226.175220             -0.0000