User:   madkru@c099.nifl.fysik.dtu.dk
Date:   Fri Oct 21 17:26:56 2022
Arch:   x86_64
Pid:    49013
Python: 3.8.6
gpaw:   /home/niflheim/madkru/new_venv/gpaw/gpaw (1f0dfc9eae)
_gpaw:  /home/niflheim/madkru/new_venv/gpaw/build/lib.linux-x86_64-skylake-3.8/
        _gpaw.cpython-38-x86_64-linux-gnu.so (c1e45bfab3)
ase:    /home/niflheim/madkru/new_venv/ase/ase (version 3.23.0b1-ca38c75a67)
numpy:  /home/modules/software/SciPy-bundle/2020.11-foss-2020b/lib/python3.8/site-packages/numpy (version 1.19.4)
scipy:  /home/modules/software/SciPy-bundle/2020.11-foss-2020b/lib/python3.8/site-packages/scipy (version 1.5.4)
units:  Angstrom and eV
cores: 40
OpenMP: False
OMP_NUM_THREADS: 1

Input parameters:
  convergence: {forces: 0.0001}
  kpts: [4 4 6]
  maxiter: 5000
  mode: {ecut: 800.0,
         gammacentered: False,
         name: pw}
  occupations: {fixmagmom: False,
                name: fermi-dirac,
                width: 0.05}

System changes: positions, numbers, cell, pbc, initial_charges, initial_magmoms

Initialize ...

O-setup:
  name: Oxygen
  id: 9b9d51c344dea68c822856295a461509
  Z: 8.0
  valence: 6
  core: 2
  charge: 0.0
  file: /home/modules/software/GPAW-setups/0.9.20000/O.LDA.gz
  compensation charges: gauss, rc=0.21, lmax=2
  cutoffs: 1.17(filt), 0.83(core),
  valence states:
                energy  radius
    2s(2.00)   -23.752   0.688
    2p(4.00)    -9.195   0.598
    *s           3.459   0.688
    *p          18.016   0.598
    *d           0.000   0.619

  Using partial waves for O as LCAO basis

Mn-setup:
  name: Manganese
  id: 0d715a8018be061a6e9ea6f2d364ac92
  Z: 25.0
  valence: 15
  core: 10
  charge: 0.0
  file: /home/modules/software/GPAW-setups/0.9.20000/Mn.LDA.gz
  compensation charges: gauss, rc=0.38, lmax=2
  cutoffs: 2.14(filt), 0.86(core),
  valence states:
                energy  radius
    3s(2.00)   -85.387   1.275
    4s(2.00)    -5.282   1.275
    3p(6.00)   -54.493   1.281
    4p(0.00)    -1.471   1.281
    3d(5.00)    -7.009   1.138
    *d          20.203   1.138

[...]

P-setup:
  name: Phosphorus
  id: a5561c299094968922a179ab894d2e2d
  Z: 15.0
  valence: 5
  core: 10
  charge: 0.0
  file: /home/modules/software/GPAW-setups/0.9.20000/P.LDA.gz
  compensation charges: gauss, rc=0.30, lmax=2
  cutoffs: 1.69(filt), 1.81(core),
  valence states:
                energy  radius
    3s(2.00)   -14.015   0.953
    3p(3.00)    -5.596   0.953
    *s          13.197   0.953
    *p          21.615   0.953
    *d           0.000   0.953

[...]

Li-setup:
  name: Lithium
  id: b73562207f97a71b6967473b66fe8b65
  Z: 3.0
  valence: 1
  core: 2
  charge: 0.0
  file: /home/modules/software/GPAW-setups/0.9.20000/Li.LDA.gz
  compensation charges: gauss, rc=0.33, lmax=2
  cutoffs: 1.91(filt), 2.55(core),
  valence states:
                energy  radius
    2s(1.00)    -2.874   1.058
    2p(0.00)    -1.126   1.058
    *s          24.338   1.058

[...]

Reference energy: -196157.275402

Spin-polarized calculation.
Magnetic moment: 0.000000

Convergence criteria:
  Maximum total energy change: 0.0005 eV / electron
  Maximum integral of absolute density change: 0.0001 electrons
  Maximum integral of absolute eigenstate change: 4e-08 eV^2
  Maximum change in atomic force: 0.0001 eV / Ang
  Maximum number of iterations: 5000

Symmetries present (total): 1

  ( 1  0  0)
  ( 0  1  0)
  ( 0  0  1)

96 k-points: 4 x 4 x 6 Monkhorst-Pack grid
48 k-points in the irreducible part of the Brillouin zone
       k-points in crystal coordinates                weights
   0:     0.12500000   -0.37500000   -0.41666667          2/96
   1:     0.12500000   -0.37500000   -0.25000000          2/96
   2:     0.12500000   -0.37500000   -0.08333333          2/96
   3:     0.12500000   -0.37500000    0.08333333          2/96
   4:     0.12500000   -0.37500000    0.25000000          2/96
   5:     0.12500000   -0.37500000    0.41666667          2/96
   6:     0.12500000   -0.12500000   -0.41666667          2/96
   7:     0.12500000   -0.12500000   -0.25000000          2/96
   8:     0.12500000   -0.12500000   -0.08333333          2/96
   9:     0.12500000   -0.12500000    0.08333333          2/96
          ...
  47:     0.37500000    0.37500000    0.41666667          2/96

Wave functions: Plane wave expansion
  Cutoff energy: 800.000 eV
  Number of coefficients (min, max): 15502, 15560
  Pulay-stress correction: 0.000000 eV/Ang^3 (de/decut=0.000000)
  Using FFTW library
  ScaLapack parameters: grid=1x1, blocksize=None
  Wavefunction extrapolation:
    Improved wavefunction reuse through dual PAW basis

Occupation numbers: Fermi-Dirac: width=0.0500 eV

Eigensolver
   Davidson(niter=2)

Densities:
  Coarse grid: 70*40*32 grid
  Fine grid: 140*80*64 grid
  Total Charge: 0.000000

Density mixing:
  Method: difference
  Backend: pulay
  Linear mixing parameter: 0.05
  Mixing with 5 old densities
  Damping of long wave oscillations: 50

Hamiltonian:
  XC and Coulomb potentials evaluated on a 140*80*64 grid
  Using the LDA Exchange-Correlation functional
  External potential:
    <gpaw.external.NoExternalPotential object at 0x2b89fefeacd0>

Total number of cores used: 40
Parallelization over k-points: 40

Number of atoms: 28
Number of atomic orbitals: 148
Number of bands in calculation: 112
Number of valence electrons: 180
Bands to converge: occupied

... initialized

Initializing position-dependent things.

Density initialized from atomic densities
Creating initial wave functions:
  112 bands from LCAO basis set

   / |   O         P  O      O |
  /  |PO        O   OMn        |
 *   |       O          Mn     |
 |   |O         Li        O    |
 |   .--Mn---------O-----------.
 |  /      MO LiO        OP   /
 | Oi     O  P         O     /
 Li------------------------*

Positions:
   0 O      3.692380    0.284870    1.076928    ( 0.0000,  0.0000,  0.0000)
   1 O      1.537620    5.815130    3.446928    ( 0.0000,  0.0000,  0.0000)
   2 O      6.767620    3.334870    3.663072    ( 0.0000,  0.0000,  0.0000)
   3 O      8.922380    2.765130    1.293072    ( 0.0000,  0.0000,  0.0000)
   4 O      6.767620    5.815130    3.663072    ( 0.0000,  0.0000,  0.0000)
   5 O      8.922380    0.284870    1.293072    ( 0.0000,  0.0000,  0.0000)
   6 O      3.692380    2.765130    1.076928    ( 0.0000,  0.0000,  0.0000)
   7 O      1.537620    3.334870    3.446928    ( 0.0000,  0.0000,  0.0000)
   8 O      0.529276    1.525000    1.174098    ( 0.0000,  0.0000,  0.0000)
   9 O      4.700724    4.575000    3.544098    ( 0.0000,  0.0000,  0.0000)
  10 O      9.930724    4.575000    3.565902    ( 0.0000,  0.0000,  0.0000)
  11 O      5.759276    1.525000    1.195902    ( 0.0000,  0.0000,  0.0000)
  12 Mn     2.331534    1.525000    2.477124    ( 0.0000,  0.0000,  1.0000)
  13 Mn     2.898466    4.575000    0.107124    ( 0.0000,  0.0000, -1.0000)
  14 Mn     8.128466    4.575000    2.262876    ( 0.0000,  0.0000, -1.0000)
  15 Mn     7.561534    1.525000    4.632876    ( 0.0000,  0.0000,  1.0000)
  16 P      4.369142    1.525000    0.421386    ( 0.0000,  0.0000,  0.0000)
  17 P      0.860858    4.575000    2.791386    ( 0.0000,  0.0000,  0.0000)
  18 P      6.090858    4.575000    4.318614    ( 0.0000,  0.0000,  0.0000)
  19 P      9.599142    1.525000    1.948614    ( 0.0000,  0.0000,  0.0000)
  20 O      4.421442    1.525000    3.567324    ( 0.0000,  0.0000,  0.0000)
  21 O      0.808558    4.575000    1.197324    ( 0.0000,  0.0000,  0.0000)
  22 O      6.038558    4.575000    1.172676    ( 0.0000,  0.0000,  0.0000)
  23 O      9.651442    1.525000    3.542676    ( 0.0000,  0.0000,  0.0000)
  24 Li     0.000000    0.000000    0.000000    ( 0.0000,  0.0000,  0.0000)
  25 Li     5.230000    0.000000    2.370000    ( 0.0000,  0.0000,  0.0000)
  26 Li     0.000000    3.050000    0.000000    ( 0.0000,  0.0000,  0.0000)
  27 Li     5.230000    3.050000    2.370000    ( 0.0000,  0.0000,  0.0000)

Unit cell:
           periodic     x           y           z      points  spacing
  1. axis:    yes   10.460000    0.000000    0.000000    70     0.1494
  2. axis:    yes    0.000000    6.100000    0.000000    40     0.1525
  3. axis:    yes    0.000000    0.000000    4.740000    32     0.1481

  Lengths:  10.460000   6.100000   4.740000
  Angles:   90.000000  90.000000  90.000000

Effective grid spacing dv^(1/3) = 0.1500

                     log10-error:           total        iterations:
           time      wfs    density  force  energy       poisson  magmom
iter:   1  17:28:13                       -232.404081             -0.0000
iter:   2  17:28:25  -0.60  -0.92         -235.644098             +0.0000
iter:   3  17:28:37  -0.52  -0.96         -226.509436             -0.0000
iter:   4  17:28:48  -1.05  -1.23         -225.819429             -0.0000
iter:   5  17:29:00  -1.53  -1.37         -226.291674             -0.0000
iter:   6  17:29:12  -1.56  -1.45         -225.821123             -0.0000
iter:   7  17:29:23  -1.71  -2.08         -225.767833             -0.0000
iter:   8  17:29:35  -1.99  -1.82         -225.368382             -0.0000
iter:   9  17:29:47  -3.07  -2.57         -225.371441             -0.0000
iter:  10  17:29:59  -3.02  -2.60         -225.379959             -0.0000
iter:  11  17:30:10  -2.87  -2.46         -225.354591             -0.0000
iter:  12  17:30:22  -4.47  -3.19         -225.354600             -0.0000
iter:  13  17:30:34  -4.98  -3.25         -225.354399             -0.0000
iter:  14  17:30:45  -4.15  -3.27         -225.355702             -0.0000
iter:  15  17:30:57  -4.40  -3.19         -225.354216             -0.0000
iter:  16  17:31:09  -5.62  -3.93         -225.354204             -0.0000
iter:  17  17:31:20  -6.09  -3.79         -225.354179             -0.0000
iter:  18  17:31:32  -6.27  -4.07         -225.354135             -0.0000
iter:  19  17:31:44  -6.71  -4.18         -225.354126             -0.0000
iter:  20  17:31:56  -6.84  -4.22         -225.354125             -0.0000
iter:  21  17:32:12  -7.40  -4.28         -225.354128             +0.0000
iter:  22  17:32:30  -8.73  -4.36    -2.91-225.354128             -0.0000
iter:  23  17:32:47  -7.43  -4.40    -2.27-225.354128             -0.0000
iter:  24  17:32:59  -7.06  -4.47         -225.354133             -0.0000
iter:  25  17:33:16  -8.21  -4.55    -2.54-225.354133             -0.0000
iter:  26  17:33:33  -8.21  -4.57    -2.88-225.354132             +0.0000
iter:  27  17:33:51  -8.26  -4.58    -2.94-225.354131             +0.0000
iter:  28  17:34:03  -7.18  -4.58         -225.354127             +0.0000
iter:  29  17:34:20  -7.51  -4.73    -2.33-225.354128             +0.0000
iter:  30  17:34:37  -8.28  -4.88    -2.99-225.354127             +0.0000
iter:  31  17:34:54  -8.86  -4.98    -3.23-225.354127             -0.0000
iter:  32  17:35:12  -8.75  -5.05    -3.04-225.354127             -0.0000
iter:  33  17:35:29  -9.23  -5.34    -3.48-225.354127             -0.0000
iter:  34  17:35:46  -8.87  -5.50    -3.58-225.354127             -0.0000
iter:  35  17:36:04 -10.35  -5.62    -3.94-225.354127             -0.0000
iter:  36  17:36:21  -9.35  -5.66    -3.81-225.354127             -0.0000
iter:  37  17:36:38 -10.55  -5.77    -4.40-225.354127             -0.0000
[...]
  XC and Coulomb potentials evaluated on a 140*80*64 grid
  Using the LDA Exchange-Correlation functional
  External potential:
    <gpaw.external.NoExternalPotential object at 0x2b8a09afc640>

[...]

Hamiltonian:
  XC and Coulomb potentials evaluated on a 140*80*64 grid
  Using the LDA Exchange-Correlation functional
  External potential:
    <gpaw.external.NoExternalPotential object at 0x2b8a0a4bfd90>

[...]

Hamiltonian:
  XC and Coulomb potentials evaluated on a 140*80*64 grid
  Using the LDA Exchange-Correlation functional
  External potential:
    <gpaw.external.NoExternalPotential object at 0x2b8a044e4f40>

[...]

Hamiltonian:
  XC and Coulomb potentials evaluated on a 140*80*64 grid
  Using the LDA Exchange-Correlation functional
  External potential:
    <gpaw.external.NoExternalPotential object at 0x2b8a079df550>

[...]

Hamiltonian:
  XC and Coulomb potentials evaluated on a 140*80*64 grid
  Using the LDA Exchange-Correlation functional
  External potential:
    <gpaw.external.NoExternalPotential object at 0x2b8a044e4190>

[...]

Hamiltonian:
  XC and Coulomb potentials evaluated on a 140*80*64 grid
  Using the LDA Exchange-Correlation functional
  External potential:
    <gpaw.external.NoExternalPotential object at 0x2b8a0a1715e0>

[...]

Hamiltonian:
  XC and Coulomb potentials evaluated on a 140*80*64 grid
  Using the LDA Exchange-Correlation functional
  External potential:
    <gpaw.external.NoExternalPotential object at 0x2b8a0845ae80>

[...]

Hamiltonian:
  XC and Coulomb potentials evaluated on a 140*80*64 grid
  Using the LDA Exchange-Correlation functional
  External potential:
    <gpaw.external.NoExternalPotential object at 0x2b8a0adf2ca0>

[...]

Hamiltonian:
  XC and Coulomb potentials evaluated on a 140*80*64 grid
  Using the LDA Exchange-Correlation functional
  External potential:
    <gpaw.external.NoExternalPotential object at 0x2b8a0b1fd250>

[...]

Hamiltonian:
  XC and Coulomb potentials evaluated on a 140*80*64 grid
  Using the LDA Exchange-Correlation functional
  External potential:
    <gpaw.external.NoExternalPotential object at 0x2b8a0b673ca0>

[...]

Hamiltonian:
  XC and Coulomb potentials evaluated on a 140*80*64 grid
  Using the LDA Exchange-Correlation functional
  External potential:
    <gpaw.external.NoExternalPotential object at 0x2b8a0b673250>

[...]

System changes: cell, positions

Initialize ...

O-setup:
  name: Oxygen
  id: 9b9d51c344dea68c822856295a461509
  Z: 8.0
  valence: 6
  core: 2
  charge: 0.0
  file: /home/modules/software/GPAW-setups/0.9.20000/O.LDA.gz
  compensation charges: gauss, rc=0.21, lmax=2
  cutoffs: 1.17(filt), 0.83(core),
  valence states:
                energy  radius
    2s(2.00)   -23.752   0.688
    2p(4.00)    -9.195   0.598
    *s           3.459   0.688
    *p          18.016   0.598
    *d           0.000   0.619

[...]

Mn-setup:
  name: Manganese
  id: 0d715a8018be061a6e9ea6f2d364ac92
  Z: 25.0
  valence: 15
  core: 10
  charge: 0.0
  file: /home/modules/software/GPAW-setups/0.9.20000/Mn.LDA.gz
  compensation charges: gauss, rc=0.38, lmax=2
  cutoffs: 2.14(filt), 0.86(core),
  valence states:
                energy  radius
    3s(2.00)   -85.387   1.275
    4s(2.00)    -5.282   1.275
    3p(6.00)   -54.493   1.281
    4p(0.00)    -1.471   1.281
    3d(5.00)    -7.009   1.138
    *d          20.203   1.138

[...]

P-setup:
  name: Phosphorus
  id: a5561c299094968922a179ab894d2e2d
  Z: 15.0
  valence: 5
  core: 10
  charge: 0.0
  file: /home/modules/software/GPAW-setups/0.9.20000/P.LDA.gz
  compensation charges: gauss, rc=0.30, lmax=2
  cutoffs: 1.69(filt), 1.81(core),
  valence states:
                energy  radius
    3s(2.00)   -14.015   0.953
    3p(3.00)    -5.596   0.953
    *s          13.197   0.953
    *p          21.615   0.953
    *d           0.000   0.953

[...]

Li-setup:
  name: Lithium
  id: b73562207f97a71b6967473b66fe8b65
  Z: 3.0
  valence: 1
  core: 2
  charge: 0.0
  file: /home/modules/software/GPAW-setups/0.9.20000/Li.LDA.gz
  compensation charges: gauss, rc=0.33, lmax=2
  cutoffs: 1.91(filt), 2.55(core),
  valence states:
                energy  radius
    2s(1.00)    -2.874   1.058
    2p(0.00)    -1.126   1.058
    *s          24.338   1.058

  Using partial waves for Li as LCAO basis

Reference energy: -196157.275402

Spin-polarized calculation.
Magnetic moment: 0.000000

Convergence criteria:
  Maximum total energy change: 0.0005 eV / electron
  Maximum integral of absolute density change: 0.0001 electrons
  Maximum integral of absolute eigenstate change: 4e-08 eV^2
  Maximum change in atomic force: 0.0001 eV / Ang
  Maximum number of iterations: 5000

Symmetries present (total): 1

  ( 1  0  0)
  ( 0  1  0)
  ( 0  0  1)

96 k-points: 4 x 4 x 6 Monkhorst-Pack grid
48 k-points in the irreducible part of the Brillouin zone
       k-points in crystal coordinates                weights
   0:     0.12500000   -0.37500000   -0.41666667          2/96
   1:     0.12500000   -0.37500000   -0.25000000          2/96
   2:     0.12500000   -0.37500000   -0.08333333          2/96
   3:     0.12500000   -0.37500000    0.08333333          2/96
   4:     0.12500000   -0.37500000    0.25000000          2/96
   5:     0.12500000   -0.37500000    0.41666667          2/96
   6:     0.12500000   -0.12500000   -0.41666667          2/96
   7:     0.12500000   -0.12500000   -0.25000000          2/96
   8:     0.12500000   -0.12500000   -0.08333333          2/96
   9:     0.12500000   -0.12500000    0.08333333          2/96
          ...
  47:     0.37500000    0.37500000    0.41666667          2/96

Wave functions: Plane wave expansion
  Cutoff energy: 800.000 eV
  Number of coefficients (min, max): 14786, 14832
  Pulay-stress correction: 0.000000 eV/Ang^3 (de/decut=0.000000)
  Using FFTW library
  ScaLapack parameters: grid=1x1, blocksize=None
  Wavefunction extrapolation:
    Improved wavefunction reuse through dual PAW basis

Occupation numbers: Fermi-Dirac: width=0.0500 eV

Eigensolver
   Davidson(niter=2)

Densities:
  Coarse grid: 70*40*32 grid
  Fine grid: 140*80*64 grid
  Total Charge: 0.000000

Density mixing:
  Method: difference
  Backend: pulay
  Linear mixing parameter: 0.05
  Mixing with 5 old densities
  Damping of long wave oscillations: 50

Hamiltonian:
  XC and Coulomb potentials evaluated on a 140*80*64 grid
  Using the LDA Exchange-Correlation functional
  External potential:
    <gpaw.external.NoExternalPotential object at 0x2b8a0adf2340>

Total number of cores used: 40
Parallelization over k-points: 40

Number of atoms: 28
Number of atomic orbitals: 148
Number of bands in calculation: 112
Number of valence electrons: 180
Bands to converge: occupied

... initialized

Initializing position-dependent things.

Density initialized from atomic densities
Creating initial wave functions:
  112 bands from LCAO basis set

               O         P  O
                     O    Mn      O
            PO
                  O   Li      MO
            O Mn         O
                 On Li        OP
         Oi           O     O
                O P
       Li

Positions:
   0 O      3.443326    0.270221    1.016638    ( 0.0000,  0.0000,  0.0000)
   1 O      1.686528    5.731896    3.356759    ( 0.0000,  0.0000,  0.0000)
   2 O      6.816194    3.271233    3.663541    ( 0.0000,  0.0000,  0.0000)
   3 O      8.573433    2.730875    1.323412    ( 0.0000,  0.0000,  0.0000)
   4 O      6.816194    5.731924    3.663541    ( 0.0000,  0.0000,  0.0000)
   5 O      8.573434    0.270177    1.323412    ( 0.0000,  0.0000,  0.0000)
   6 O      3.443325    2.730831    1.016638    ( 0.0000,  0.0000,  0.0000)
   7 O      1.686528    3.271261    3.356759    ( 0.0000,  0.0000,  0.0000)
   8 O      0.478891    1.500526    1.346084    ( 0.0000,  0.0000,  0.0000)
   9 O      4.650985    4.501578    3.686166    ( 0.0000,  0.0000,  0.0000)
  10 O      9.781033    4.501578    3.334144    ( 0.0000,  0.0000,  0.0000)
  11 O      5.608586    1.500526    0.993991    ( 0.0000,  0.0000,  0.0000)
  12 Mn     2.257754    1.500526    2.446095    ( 0.0000,  0.0000,  1.0000)
  13 Mn     2.872075    4.501578    0.105999    ( 0.0000,  0.0000, -1.0000)
  14 Mn     8.002166    4.501578    2.234368    ( 0.0000,  0.0000, -1.0000)
  15 Mn     7.387440    1.500526    4.574488    ( 0.0000,  0.0000,  1.0000)
  16 P      4.181398    1.500526    0.390823    ( 0.0000,  0.0000,  0.0000)
  17 P      0.948459    4.501578    2.730971    ( 0.0000,  0.0000,  0.0000)
  18 P      6.078177    4.501579    4.289363    ( 0.0000,  0.0000,  0.0000)
  19 P      9.311447    1.500526    1.949237    ( 0.0000,  0.0000,  0.0000)
  20 O      4.165910    1.500526    3.539877    ( 0.0000,  0.0000,  0.0000)
  21 O      0.963972    4.501578    1.199782    ( 0.0000,  0.0000,  0.0000)
  22 O      6.094000    4.501579    1.140303    ( 0.0000,  0.0000,  0.0000)
  23 O      9.295646    1.500526    3.480412    ( 0.0000,  0.0000,  0.0000)
  24 Li    -0.000037   -0.000002    0.000043    ( 0.0000,  0.0000,  0.0000)
  25 Li     5.129899    0.000005    2.340158    ( 0.0000,  0.0000,  0.0000)
  26 Li    -0.000036    3.001054    0.000043    ( 0.0000,  0.0000,  0.0000)
  27 Li     5.129899    3.001048    2.340158    ( 0.0000,  0.0000,  0.0000)

Unit cell:
           periodic     x           y           z      points  spacing
  1. axis:    yes   10.259757   -0.000000   -0.000010    70     0.1466
  2. axis:    yes   -0.000000    6.002104   -0.000000    40     0.1501
  3. axis:    yes   -0.000005   -0.000000    4.680241    32     0.1463

  Lengths:  10.259757   6.002104   4.680241
  Angles:   90.000001  90.000110  90.000000

Effective grid spacing dv^(1/3) = 0.1476

                     log10-error:           total        iterations:
           time      wfs    density  force  energy       poisson  magmom
iter:   1  09:04:02                       -234.565635             +0.0000
iter:   2  09:04:13  -0.46  -0.94         -232.979235             +0.0000
iter:   3  09:04:25  -0.58  -0.99         -221.631432             +0.0000
iter:   4  09:04:36  -1.06  -1.26         -220.616564             +0.0019
iter:   5  09:04:47  -1.67  -1.36         -226.000056             -0.0008
iter:   6  09:04:58  -1.80  -1.31         -222.931325             -0.0432
iter:   7  09:05:09  -1.88  -1.51         -221.293310             -0.1500
iter:   8  09:05:21  -2.23  -1.89         -223.660910             -0.2755
iter:   9  09:05:32  -2.71  -1.80         -224.574538             -0.5280
iter:  10  09:05:43  -2.47  -1.80         -227.829924             -0.2468
iter:  11  09:05:54  -2.36  -1.75         -228.947382             +0.1979
iter:  12  09:06:05  -3.08  -1.71         -229.186175             +0.0377
iter:  13  09:06:17  -2.45  -1.72         -228.616014             +0.0116
iter:  14  09:06:28  -1.97  -1.75         -228.334263             +0.0082
iter:  15  09:06:39  -2.43  -1.87         -228.021756             +0.0040
iter:  16  09:06:50  -2.70  -2.27         -227.976991             +0.0017
iter:  17  09:07:01  -2.29  -2.44         -227.873788             -0.0001
iter:  18  09:07:13  -3.35  -2.60         -227.863672             +0.0003
iter:  19  09:07:24  -2.94  -2.68         -227.830232             +0.0004
iter:  20  09:07:35  -3.96  -2.98         -227.825303             +0.0001
iter:  21  09:07:46  -4.37  -3.13         -227.818940             +0.0000
iter:  22  09:07:57  -4.81  -3.16         -227.817824             +0.0000
iter:  23  09:08:09  -4.25  -3.24         -227.816182             +0.0000
iter:  24  09:08:20  -5.00  -3.30         -227.815933             +0.0000
iter:  25  09:08:31  -4.40  -3.33         -227.815222             +0.0000
iter:  26  09:08:42  -5.22  -3.75         -227.815352             +0.0000
iter:  27  09:08:54  -5.94  -3.85         -227.815175             -0.0000
iter:  28  09:09:05  -5.74  -3.92         -227.815149             +0.0000
iter:  29  09:09:16  -6.40  -4.21         -227.815128             +0.0000
iter:  30  09:09:27  -6.47  -4.24         -227.815122             +0.0000
iter:  31  09:09:38  -6.84  -4.35         -227.815113             +0.0000
iter:  32  09:09:54  -7.65  -4.55         -227.815112             +0.0000
iter:  33  09:10:06  -7.06  -4.60         -227.815110             -0.0000
iter:  34  09:10:17  -7.10  -4.79         -227.815110             +0.0000
iter:  35  09:10:33  -8.33  -4.98    -2.47-227.815110             -0.0000
iter:  36  09:10:50  -8.16  -5.02    -3.23-227.815110             -0.0000
iter:  37  09:11:07  -7.98  -5.05    -2.81-227.815110             -0.0000
iter:  38  09:11:23  -8.29  -5.11    -3.18-227.815109             -0.0000
iter:  39  09:11:40  -8.25  -5.29    -3.37-227.815109             -0.0000
iter:  40  09:11:56  -8.52  -5.34    -3.09-227.815109             -0.0000
iter:  41  09:12:13  -8.77  -5.51    -3.48-227.815109             -0.0000
iter:  42  09:12:30  -9.29  -5.83    -3.90-227.815109             -0.0000
iter:  43  09:12:46  -9.31  -5.82    -3.75-227.815109             -0.0000
iter:  44  09:13:03 -10.37  -6.12    -4.07-227.815109             -0.0000

Converged after 44 iterations.

Dipole moment: (0.006883, 0.000040, -0.005140) |e|*Ang

Total magnetic moment: (0.000000, 0.000000, -0.000000)
Local magnetic moments:
   0 O  ( 0.000000,  0.000000, -0.001295)
   1 O  ( 0.000000,  0.000000,  0.001299)
   2 O  ( 0.000000,  0.000000,  0.001299)
   3 O  ( 0.000000,  0.000000, -0.001298)
   4 O  ( 0.000000,  0.000000,  0.001299)
   5 O  ( 0.000000,  0.000000, -0.001298)
   6 O  ( 0.000000,  0.000000, -0.001295)
   7 O  ( 0.000000,  0.000000,  0.001299)
   8 O  ( 0.000000,  0.000000,  0.029767)
   9 O  ( 0.000000,  0.000000, -0.029762)
  10 O  ( 0.000000,  0.000000, -0.029770)
  11 O  ( 0.000000,  0.000000,  0.029772)
  12 Mn ( 0.000000,  0.000000,  4.424073)
  13 Mn ( 0.000000,  0.000000, -4.424084)
  14 Mn ( 0.000000,  0.000000, -4.424137)
  15 Mn ( 0.000000,  0.000000,  4.424135)
  16 P  ( 0.000000,  0.000000,  0.001254)
  17 P  ( 0.000000,  0.000000, -0.001254)
  18 P  ( 0.000000,  0.000000, -0.001255)
  19 P  ( 0.000000,  0.000000,  0.001256)
  20 O  ( 0.000000,  0.000000,  0.026655)
  21 O  ( 0.000000,  0.000000, -0.026655)
  22 O  ( 0.000000,  0.000000, -0.026641)
  23 O  ( 0.000000,  0.000000,  0.026640)
  24 Li ( 0.000000,  0.000000, -0.000000)
  25 Li ( 0.000000,  0.000000,  0.000000)
  26 Li ( 0.000000,  0.000000, -0.000000)
  27 Li ( 0.000000,  0.000000,  0.000000)

Energy contributions relative to reference atoms: (reference = -196157.275402)

Kinetic:       +258.173354
Potential:     -231.250510
External:        +0.000000
XC:            -257.894329
Entropy (-ST):   -0.000000
Local:           +3.156376
Free energy:   -227.815109
Extrapolated:  -227.815109

Spin contamination: 9.511098 electrons
Showing only first 2 kpts
                      Up                     Down
 Kpt  Band  Eigenvalues  Occupancy  Eigenvalues  Occupancy
  0    88      5.75108    1.00000      5.75115    1.00000
  0    89      5.85579    1.00000      5.85586    1.00000
  0    90      7.82009    0.00000      7.81998    0.00000
  0    91      7.88933    0.00000      7.88922    0.00000

  1    88      5.77148    1.00000      5.77155    1.00000
  1    89      5.86169    1.00000      5.86177    1.00000
  1    90      7.78884    0.00000      7.78872    0.00000
  1    91      7.85624    0.00000      7.85616    0.00000

Fermi level: 6.79840

Gap: 1.854 eV
Transition (v -> c):
  (s=1, k=20, n=89, [0.12, 0.38, -0.08]) -> (s=1, k=14, n=90, [0.12, 0.12, -0.08])
Stress tensor:
     0.000036     0.000000    -0.000001
     0.000000    -0.000095    -0.000000
    -0.000001    -0.000000     0.000078

Forces in eV/Ang:
  0 O     0.00052   -0.00002   -0.00021
  1 O    -0.00043   -0.00025    0.00008
  2 O     0.00040   -0.00000   -0.00011
  3 O    -0.00030   -0.00013   -0.00007
  4 O     0.00040    0.00000   -0.00011
  5 O    -0.00030    0.00014   -0.00007
  6 O     0.00052    0.00002   -0.00021
  7 O    -0.00043    0.00025    0.00008
  8 O    -0.00002   -0.00000    0.00029
  9 O    -0.00014   -0.00000    0.00087
 10 O    -0.00046    0.00000    0.00063
 11 O     0.00044   -0.00000    0.00081
 12 Mn   -0.00024    0.00000   -0.00056
 13 Mn    0.00069   -0.00000   -0.00071
 14 Mn   -0.00059    0.00000   -0.00041
 15 Mn    0.00071   -0.00000   -0.00045
 16 P     0.00031    0.00000    0.00038
 17 P    -0.00008    0.00000    0.00029
 18 P     0.00026   -0.00000   -0.00029
 19 P    -0.00050    0.00000   -0.00025
 20 O    -0.00090   -0.00000    0.00005
 21 O     0.00063   -0.00000   -0.00004
 22 O    -0.00049   -0.00000    0.00016
 23 O     0.00027    0.00000    0.00047
 24 Li    0.00001   -0.00005   -0.00016
 25 Li   -0.00002    0.00005   -0.00017
 26 Li    0.00000    0.00005   -0.00016
 27 Li   -0.00002   -0.00005   -0.00017

Writing to LiMnPO4_relaxed.gpw (mode='')