User:   madkru@i008.nifl.fysik.dtu.dk
Date:   Thu Mar 25 18:08:38 2021
Arch:   x86_64
Pid:    26969
Python: 3.7.4
gpaw:   /home/niflheim/madkru/venv_folder/gpaw/gpaw (d224efde0f)
_gpaw:  /home/niflheim/madkru/venv_folder/gpaw/build/lib.linux-x86_64-ivybridge-3.7/
        _gpaw.cpython-37m-x86_64-linux-gnu.so (4fd39e8b1e)
ase:    /home/niflheim/madkru/venv_folder/ase/ase (version 3.21.0b1-4d5a73cb29)
numpy:  /home/niflheim/madkru/venv_folder/lib/python3.7/site-packages/numpy (version 1.19.4)
scipy:  /home/niflheim/madkru/venv_folder/lib/python3.7/site-packages/scipy (version 1.5.4)
units:  Angstrom and eV
cores: 64
OMP_NUM_THREADS: 1

Input parameters:
  convergence: {bands: occupied,
                density: 0.0001,
                eigenstates: 4e-08,
                energy: 0.0005,
                forces: 1e-06}
  kpts: [6 6 4]
  mode: {ecut: 600.0,
         gammacentered: False,
         name: pw}
  occupations: {fixmagmom: False,
                name: fermi-dirac,
                width: 0.001}
  symmetry: {point_group: False,
             time_reversal: False}

System changes: positions, numbers, cell, pbc, initial_charges, initial_magmoms

Initialize ...

O-setup:
  name: Oxygen
  id: 9b9d51c344dea68c822856295a461509
  Z: 8.0
  valence: 6
  core: 2
  charge: 0.0
  file: /home/modules/software/GPAW-setups/0.9.20000/O.LDA.gz
  compensation charges: gauss, rc=0.21, lmax=2
  cutoffs: 1.17(filt), 0.83(core),
  valence states:
                energy  radius
    2s(2.00)   -23.752   0.688
    2p(4.00)    -9.195   0.598
    *s           3.459   0.688
    *p          18.016   0.598
    *d           0.000   0.619

  Using partial waves for O as LCAO basis

Mn-setup:
  name: Manganese
  id: 0d715a8018be061a6e9ea6f2d364ac92
  Z: 25.0
  valence: 15
  core: 10
  charge: 0.0
  file: /home/modules/software/GPAW-setups/0.9.20000/Mn.LDA.gz
  compensation charges: gauss, rc=0.38, lmax=2
  cutoffs: 2.14(filt), 0.86(core),
  valence states:
                energy  radius
    3s(2.00)   -85.387   1.275
    4s(2.00)    -5.282   1.275
    3p(6.00)   -54.493   1.281
    4p(0.00)    -1.471   1.281
    3d(5.00)    -7.009   1.138
    *d          20.203   1.138

[...]

P-setup:
  name: Phosphorus
  id: a5561c299094968922a179ab894d2e2d
  Z: 15.0
  valence: 5
  core: 10
  charge: 0.0
  file: /home/modules/software/GPAW-setups/0.9.20000/P.LDA.gz
  compensation charges: gauss, rc=0.30, lmax=2
  cutoffs: 1.69(filt), 1.81(core),
  valence states:
                energy  radius
    3s(2.00)   -14.015   0.953
    3p(3.00)    -5.596   0.953
    *s          13.197   0.953
    *p          21.615   0.953
    *d           0.000   0.953

[...]

Li-setup:
  name: Lithium
  id: b73562207f97a71b6967473b66fe8b65
  Z: 3.0
  valence: 1
  core: 2
  charge: 0.0
  file: /home/modules/software/GPAW-setups/0.9.20000/Li.LDA.gz
  compensation charges: gauss, rc=0.33, lmax=2
  cutoffs: 1.91(filt), 2.55(core),
  valence states:
                energy  radius
    2s(1.00)    -2.874   1.058
    2p(0.00)    -1.126   1.058
    *s          24.338   1.058

  Using partial waves for Li as LCAO basis

Reference energy: -196157.275402

Spin-polarized calculation.
Magnetic moment: 0.000000

Convergence criteria:
  Maximum total energy change: 0.0005 eV / electron
  Maximum integral of absolute density change: 0.0001 electrons
  Maximum integral of absolute eigenstate change: 4e-08 eV^2
  Maximum change in atomic force: 1e-06 eV / Ang
  Maximum number of iterations: 333

Symmetries present (total): 1

  ( 1  0  0)
  ( 0  1  0)
  ( 0  0  1)

144 k-points: 6 x 6 x 4 Monkhorst-Pack grid
144 k-points in the irreducible part of the Brillouin zone
       k-points in crystal coordinates                weights
   0:    -0.41666667   -0.41666667   -0.37500000          1/144
   1:    -0.41666667   -0.41666667   -0.12500000          1/144
   2:    -0.41666667   -0.41666667    0.12500000          1/144
   3:    -0.41666667   -0.41666667    0.37500000          1/144
   4:    -0.41666667   -0.25000000   -0.37500000          1/144
   5:    -0.41666667   -0.25000000   -0.12500000          1/144
   6:    -0.41666667   -0.25000000    0.12500000          1/144
   7:    -0.41666667   -0.25000000    0.37500000          1/144
   8:    -0.41666667   -0.08333333   -0.37500000          1/144
   9:    -0.41666667   -0.08333333   -0.12500000          1/144
          ...
 143:     0.41666667    0.41666667    0.37500000          1/144

Wave functions: Plane wave expansion
  Cutoff energy: 600.000 eV
  Number of coefficients (min, max): 9132, 9161
  Pulay-stress correction: 0.000000 eV/Ang^3 (de/decut=0.000000)
  Using FFTW library
  ScaLapack parameters: grid=1x1, blocksize=None
  Wavefunction extrapolation:
    Improved wavefunction reuse through dual PAW basis

  Fermi-Dirac: width=0.0010 eV

Eigensolver
   Davidson(niter=2, smin=None, normalize=True)

Densities:
  Coarse grid: 60*35*27 grid
  Fine grid: 120*70*54 grid
  Total Charge: 0.000000

Density mixing:
  Method: difference
  Backend: pulay
  Linear mixing parameter: 0.05
  Mixing with 5 old densities
  Damping of long wave oscillations: 50

Hamiltonian:
  XC and Coulomb potentials evaluated on a 120*70*54 grid
  Using the LDA Exchange-Correlation functional

Total number of cores used: 64
Parallelization over k-points: 16
Domain decomposition: 2 x 2 x 1

Number of atoms: 28
Number of atomic orbitals: 148
Number of bands in calculation: 112
Number of valence electrons: 180
Bands to converge: occupied

... initialized

Initializing position-dependent things.

Density initialized from atomic densities
Creating initial wave functions:
  112 bands from LCAO basis set

               O     O  P  O
            PO           OMn     O
                  O          MO
            O        Li O
             Mn  Mn          OP
         O       O Li O
         Li     O P         O
       Li

Positions:
   0 O     -1.280122   -2.495595   -1.112331    ( 0.0000,  0.0000,  0.0000)
   1 O     -3.023238    2.918858    1.191723    ( 0.0000,  0.0000,  0.0000)
   2 O      1.997451    0.467212    1.441442    ( 0.0000,  0.0000,  0.0000)
   3 O      3.740343   -0.043905   -0.862614    ( 0.0000,  0.0000,  0.0000)
   4 O      1.997419    2.918835    1.441465    ( 0.0000,  0.0000,  0.0000)
   5 O      3.740372   -2.495531   -0.862587    ( 0.0000,  0.0000,  0.0000)
   6 O     -1.280154   -0.043891   -1.112309    ( 0.0000,  0.0000,  0.0000)
   7 O     -3.023210    0.467136    1.191750    ( 0.0000,  0.0000,  0.0000)
   8 O     -4.147405   -1.269737   -0.856207    ( 0.0000,  0.0000,  0.0000)
   9 O     -0.155894    1.692986    1.447725    ( 0.0000,  0.0000,  0.0000)
  10 O      4.864578    1.693016    1.185324    ( 0.0000,  0.0000,  0.0000)
  11 O      0.873163   -1.269706   -1.118625    ( 0.0000,  0.0000,  0.0000)
  12 Mn    -2.437108   -1.269902    0.302197    ( 0.0000,  0.0000,  1.0000)
  13 Mn    -1.866187    1.693156   -2.001927    ( 0.0000,  0.0000, -1.0000)
  14 Mn     3.154299    1.693181    0.026917    ( 0.0000,  0.0000, -1.0000)
  15 Mn     2.583444   -1.269877    2.331074    ( 0.0000,  0.0000,  1.0000)
  16 P     -0.543052   -1.269720   -1.734187    ( 0.0000,  0.0000,  0.0000)
  17 P     -3.760282    1.692974    0.569859    ( 0.0000,  0.0000,  0.0000)
  18 P      1.260300    1.693000    2.063344    ( 0.0000,  0.0000,  0.0000)
  19 P      4.477470   -1.269695   -0.240696    ( 0.0000,  0.0000,  0.0000)
  20 O     -0.544413   -1.269738    1.348523    ( 0.0000,  0.0000,  0.0000)
  21 O     -3.758895    1.682992   -0.955558    ( 0.0000,  0.0000,  0.0000)
  22 O      1.261690    1.693018   -1.019367    ( 0.0000,  0.0000,  0.0000)
  23 O      4.476045   -1.269713    1.284716    ( 0.0000,  0.0000,  0.0000)
  24 Li    -4.662027   -2.751322   -2.139440    ( 0.0000,  0.0000,  0.0000)
  25 Li     0.358703   -2.751277    0.164614    ( 0.0000,  0.0000,  0.0000)
  26 Li    -4.662011    0.211617   -2.139439    ( 0.0000,  0.0000,  0.0000)
  27 Li     0.358720    0.211628    0.164615    ( 0.0000,  0.0000,  0.0000)

Unit cell:
           periodic     x           y           z      points  spacing
  1. axis:    yes   10.041096    0.000054   -0.000022    60     0.1674
  2. axis:    yes    0.000032    5.925857    0.000001    35     0.1693
  3. axis:    yes   -0.000010    0.000001    4.608134    27     0.1707

  Lengths:  10.041096   5.925857   4.608134
  Angles:   89.999974  90.000250  89.999381

Effective grid spacing dv^(1/3) = 0.1691

                     log10-error:           total        iterations:
           time      wfs    density  force  energy       poisson  magmom
iter:   1  18:10:13                       -233.730158             +0.0000
iter:   2  18:10:33  -0.47  -0.95         -231.549860             +0.0020
iter:   3  18:10:53  -0.61  -1.00         -220.803059             +0.0021
iter:   4  18:11:12  -1.19  -1.31         -220.897262             +0.3150
iter:   5  18:11:32  -2.12  -1.40         -222.882891             +0.1696
iter:   6  18:11:52  -2.18  -1.38         -223.682190             +0.2302
iter:   7  18:12:12  -2.17  -1.53         -223.804231             -0.1784
iter:   8  18:12:31  -2.52  -1.68         -225.614540             -0.5590
iter:   9  18:12:51  -2.26  -1.90         -226.424769             -0.2586
iter:  10  18:13:11  -2.24  -2.01         -226.311046             -0.0865
iter:  11  18:13:31  -2.91  -2.12         -226.297881             -0.0212
iter:  12  18:13:50  -2.61  -2.16         -226.232405             +0.0073
iter:  13  18:14:10  -2.96  -2.50         -226.219493             -0.0040
iter:  14  18:14:30  -2.96  -2.77         -226.182147             +0.0063
iter:  15  18:14:50  -3.58  -2.92         -226.179530             +0.0001
iter:  16  18:15:09  -4.33  -3.18         -226.179089             +0.0000
iter:  17  18:15:29  -4.62  -3.25         -226.175716             +0.0000
iter:  18  18:15:49  -5.28  -3.31         -226.175391             +0.0000
iter:  19  18:16:08  -4.82  -3.34         -226.175255             +0.0000
iter:  20  18:16:28  -4.80  -3.54         -226.176130             -0.0000
iter:  21  18:16:48  -5.86  -3.62         -226.175635             +0.0000
iter:  22  18:17:08  -5.55  -3.69         -226.175249             +0.0000
iter:  23  18:17:27  -5.79  -3.82         -226.175147             +0.0000
iter:  24  18:17:47  -5.91  -3.96         -226.175095             +0.0000
iter:  25  18:18:07  -6.48  -4.02         -226.175095             +0.0000
iter:  26  18:18:26  -6.20  -4.07         -226.175101             +0.0000
iter:  27  18:18:46  -6.56  -4.36         -226.175086             +0.0000
iter:  28  18:19:10  -8.03  -4.42         -226.175085             +0.0000
iter:  29  18:19:30  -6.72  -4.44         -226.175085             -0.0000
iter:  30  18:19:50  -6.97  -4.72         -226.175088             +0.0000
iter:  31  18:20:10  -7.37  -4.85         -226.175083             -0.0000
iter:  32  18:20:34  -8.88  -4.97    -2.20-226.175083             -0.0000
iter:  33  18:20:59  -8.12  -5.03    -2.83-226.175084             -0.0000
iter:  34  18:21:23  -7.81  -5.28    -2.84-226.175083             -0.0000
iter:  35  18:21:48  -9.30  -5.61    -3.54-226.175083             -0.0000
iter:  36  18:22:12 -10.15  -5.68    -3.95-226.175083             +0.0000
iter:  37  18:22:36  -8.92  -5.74    -3.52-226.175083             +0.0000
iter:  38  18:23:01  -9.61  -6.02    -3.54-226.175083             +0.0000
iter:  39  18:23:25 -10.02  -6.23    -4.71-226.175083             +0.0000
iter:  40  18:23:50 -10.89  -6.24    -4.53-226.175083             -0.0000
iter:  41  18:24:14 -11.21  -6.30    -4.32-226.175083             -0.0000
iter:  42  18:24:38 -11.51  -6.39    -4.25-226.175083             -0.0000
iter:  43  18:25:03 -11.16  -6.50    -4.61-226.175083             -0.0000
iter:  44  18:25:27 -11.55  -6.59    -4.64-226.175083             -0.0000
iter:  45  18:25:52 -12.03  -6.89    -4.96-226.175083             -0.0000
iter:  46  18:26:16 -12.73  -7.06    -5.40-226.175083             -0.0000
iter:  47  18:26:40 -12.48  -7.16    -5.20-226.175083             -0.0000
iter:  48  18:27:05 -12.26  -7.22    -5.00-226.175083             -0.0000
iter:  49  18:27:29 -12.84  -7.38    -5.36-226.175083             -0.0000
iter:  50  18:27:54 -12.61  -7.43    -5.06-226.175083             -0.0000
iter:  51  18:28:18 -13.72  -7.74    -5.61-226.175083             -0.0000
iter:  52  18:28:43 -14.04  -7.87    -5.92-226.175083             -0.0000
iter:  53  18:29:07 -13.59  -7.92    -5.75-226.175083             -0.0000
iter:  54  18:29:31 -14.37  -8.20    -6.23-226.175083             -0.0000

Converged after 54 iterations.

Dipole moment: (18.327104, -2.302665, -4.524271) |e|*Ang

Total magnetic moment: (0.000000, 0.000000, -0.000000)
Local magnetic moments:
   0 O  ( 0.000000,  0.000000, -0.001789)
   1 O  ( 0.000000,  0.000000,  0.001842)
   2 O  ( 0.000000,  0.000000,  0.001811)
   3 O  ( 0.000000,  0.000000, -0.001801)
   4 O  ( 0.000000,  0.000000,  0.001804)
   5 O  ( 0.000000,  0.000000, -0.001812)
   6 O  ( 0.000000,  0.000000, -0.001832)
   7 O  ( 0.000000,  0.000000,  0.001781)
   8 O  ( 0.000000,  0.000000,  0.031098)
   9 O  ( 0.000000,  0.000000, -0.031098)
  10 O  ( 0.000000,  0.000000, -0.031095)
  11 O  ( 0.000000,  0.000000,  0.031096)
  12 Mn ( 0.000000,  0.000000,  4.395765)
  13 Mn ( 0.000000,  0.000000, -4.395780)
  14 Mn ( 0.000000,  0.000000, -4.395737)
  15 Mn ( 0.000000,  0.000000,  4.395752)
  16 P  ( 0.000000,  0.000000,  0.000866)
  17 P  ( 0.000000,  0.000000, -0.000863)
  18 P  ( 0.000000,  0.000000, -0.000871)
  19 P  ( 0.000000,  0.000000,  0.000870)
  20 O  ( 0.000000,  0.000000,  0.028417)
  21 O  ( 0.000000,  0.000000, -0.028418)
  22 O  ( 0.000000,  0.000000, -0.028420)
  23 O  ( 0.000000,  0.000000,  0.028419)
  24 Li ( 0.000000,  0.000000,  0.000006)
  25 Li ( 0.000000,  0.000000,  0.000000)
  26 Li ( 0.000000,  0.000000, -0.000006)
  27 Li ( 0.000000,  0.000000,  0.000000)

Energy contributions relative to reference atoms: (reference = -196157.275402)

Kinetic:       +277.621941
Potential:     -240.964828
External:        +0.000000
XC:            -264.720655
Entropy (-ST):   -0.000000
Local:           +1.888460
Free energy:   -226.175083
Extrapolated:  -226.175083

Spin contamination: 9.455315 electrons
Showing only first 2 kpts
                      Up                     Down
 Kpt  Band  Eigenvalues  Occupancy  Eigenvalues  Occupancy
  0    88      6.53050    0.00694      6.53059    0.00694
  0    89      6.56412    0.00694      6.56410    0.00694
  0    90      8.42678    0.00000      8.42676    0.00000
  0    91      8.44832    0.00000      8.44835    0.00000

  1    88      6.56898    0.00694      6.56907    0.00694
  1    89      6.59606    0.00694      6.59608    0.00694
  1    90      8.38313    0.00000      8.38308    0.00000
  1    91      8.40520    0.00000      8.40524    0.00000

Fermi level: 7.61027

Gap: 1.699 eV
Transition (v -> c):
  (s=1, k=73, n=89, [0.08, -0.42, -0.12]) -> (s=0, k=61, n=90, [-0.08, 0.08, -0.12])
Writing to born-0.01-21y-.gpw (mode='all')