User:   madkru@i008.nifl.fysik.dtu.dk
Date:   Wed Mar 24 08:08:32 2021
Arch:   x86_64
Pid:    26969
Python: 3.7.4
gpaw:   /home/niflheim/madkru/venv_folder/gpaw/gpaw (d0d1ca1c71)
_gpaw:  /home/niflheim/madkru/venv_folder/gpaw/build/lib.linux-x86_64-ivybridge-3.7/
        _gpaw.cpython-37m-x86_64-linux-gnu.so (4fd39e8b1e)
ase:    /home/niflheim/madkru/venv_folder/ase/ase (version 3.21.0b1-7e6c206a91)
numpy:  /home/niflheim/madkru/venv_folder/lib/python3.7/site-packages/numpy (version 1.19.4)
scipy:  /home/niflheim/madkru/venv_folder/lib/python3.7/site-packages/scipy (version 1.5.4)
units:  Angstrom and eV
cores: 64
OMP_NUM_THREADS: 1

Input parameters:
  convergence: {bands: occupied,
                density: 0.0001,
                eigenstates: 4e-08,
                energy: 0.0005,
                forces: 1e-06}
  kpts: [6 6 4]
  mode: {ecut: 600.0,
         gammacentered: False,
         name: pw}
  occupations: {fixmagmom: False,
                name: fermi-dirac,
                width: 0.001}
  symmetry: {point_group: False,
             time_reversal: False}

System changes: positions, numbers, cell, pbc, initial_charges, initial_magmoms

Initialize ...

O-setup:
  name: Oxygen
  id: 9b9d51c344dea68c822856295a461509
  Z: 8.0
  valence: 6
  core: 2
  charge: 0.0
  file: /home/modules/software/GPAW-setups/0.9.20000/O.LDA.gz
  compensation charges: gauss, rc=0.21, lmax=2
  cutoffs: 1.17(filt), 0.83(core),
  valence states:
                energy  radius
    2s(2.00)   -23.752   0.688
    2p(4.00)    -9.195   0.598
    *s           3.459   0.688
    *p          18.016   0.598
    *d           0.000   0.619

  Using partial waves for O as LCAO basis

Mn-setup:
  name: Manganese
  id: 0d715a8018be061a6e9ea6f2d364ac92
  Z: 25.0
  valence: 15
  core: 10
  charge: 0.0
  file: /home/modules/software/GPAW-setups/0.9.20000/Mn.LDA.gz
  compensation charges: gauss, rc=0.38, lmax=2
  cutoffs: 2.14(filt), 0.86(core),
  valence states:
                energy  radius
    3s(2.00)   -85.387   1.275
    4s(2.00)    -5.282   1.275
    3p(6.00)   -54.493   1.281
    4p(0.00)    -1.471   1.281
    3d(5.00)    -7.009   1.138
    *d          20.203   1.138

[...]

P-setup:
  name: Phosphorus
  id: a5561c299094968922a179ab894d2e2d
  Z: 15.0
  valence: 5
  core: 10
  charge: 0.0
  file: /home/modules/software/GPAW-setups/0.9.20000/P.LDA.gz
  compensation charges: gauss, rc=0.30, lmax=2
  cutoffs: 1.69(filt), 1.81(core),
  valence states:
                energy  radius
    3s(2.00)   -14.015   0.953
    3p(3.00)    -5.596   0.953
    *s          13.197   0.953
    *p          21.615   0.953
    *d           0.000   0.953

[...]

Li-setup:
  name: Lithium
  id: b73562207f97a71b6967473b66fe8b65
  Z: 3.0
  valence: 1
  core: 2
  charge: 0.0
  file: /home/modules/software/GPAW-setups/0.9.20000/Li.LDA.gz
  compensation charges: gauss, rc=0.33, lmax=2
  cutoffs: 1.91(filt), 2.55(core),
  valence states:
                energy  radius
    2s(1.00)    -2.874   1.058
    2p(0.00)    -1.126   1.058
    *s          24.338   1.058

  Using partial waves for Li as LCAO basis

Reference energy: -196157.275402

Spin-polarized calculation.
Magnetic moment: 0.000000

Convergence criteria:
  Maximum total energy change: 0.0005 eV / electron
  Maximum integral of absolute density change: 0.0001 electrons
  Maximum integral of absolute eigenstate change: 4e-08 eV^2
  Maximum change in atomic force: 1e-06 eV / Ang
  Maximum number of iterations: 333

Symmetries present (total): 1

  ( 1  0  0)
  ( 0  1  0)
  ( 0  0  1)

144 k-points: 6 x 6 x 4 Monkhorst-Pack grid
144 k-points in the irreducible part of the Brillouin zone
       k-points in crystal coordinates                weights
   0:    -0.41666667   -0.41666667   -0.37500000          1/144
   1:    -0.41666667   -0.41666667   -0.12500000          1/144
   2:    -0.41666667   -0.41666667    0.12500000          1/144
   3:    -0.41666667   -0.41666667    0.37500000          1/144
   4:    -0.41666667   -0.25000000   -0.37500000          1/144
   5:    -0.41666667   -0.25000000   -0.12500000          1/144
   6:    -0.41666667   -0.25000000    0.12500000          1/144
   7:    -0.41666667   -0.25000000    0.37500000          1/144
   8:    -0.41666667   -0.08333333   -0.37500000          1/144
   9:    -0.41666667   -0.08333333   -0.12500000          1/144
          ...
 143:     0.41666667    0.41666667    0.37500000          1/144

Wave functions: Plane wave expansion
  Cutoff energy: 600.000 eV
  Number of coefficients (min, max): 9132, 9161
  Pulay-stress correction: 0.000000 eV/Ang^3 (de/decut=0.000000)
  Using FFTW library
  ScaLapack parameters: grid=1x1, blocksize=None
  Wavefunction extrapolation:
    Improved wavefunction reuse through dual PAW basis

  Fermi-Dirac: width=0.0010 eV

Eigensolver
   Davidson(niter=2, smin=None, normalize=True)

Densities:
  Coarse grid: 60*35*27 grid
  Fine grid: 120*70*54 grid
  Total Charge: 0.000000

Density mixing:
  Method: difference
  Backend: pulay
  Linear mixing parameter: 0.05
  Mixing with 5 old densities
  Damping of long wave oscillations: 50

Hamiltonian:
  XC and Coulomb potentials evaluated on a 120*70*54 grid
  Using the LDA Exchange-Correlation functional

Total number of cores used: 64
Parallelization over k-points: 16
Domain decomposition: 2 x 2 x 1

Number of atoms: 28
Number of atomic orbitals: 148
Number of bands in calculation: 112
Number of valence electrons: 180
Bands to converge: occupied

... initialized

Initializing position-dependent things.

Density initialized from atomic densities
Creating initial wave functions:
  112 bands from LCAO basis set

               O     O  P  O
            PO           OMn     O
                  O          MO
            O        Li O
             Mn  Mn          OP
         O       O Li O
         Li     O P         O
       Li

Positions:
   0 O     -1.280122   -2.495595   -1.112331    ( 0.0000,  0.0000,  0.0000)
   1 O     -3.023238    2.918858    1.191723    ( 0.0000,  0.0000,  0.0000)
   2 O      1.997451    0.467212    1.441442    ( 0.0000,  0.0000,  0.0000)
   3 O      3.740343   -0.043905   -0.862614    ( 0.0000,  0.0000,  0.0000)
   4 O      1.997419    2.918835    1.441465    ( 0.0000,  0.0000,  0.0000)
   5 O      3.740372   -2.495531   -0.862587    ( 0.0000,  0.0000,  0.0000)
   6 O     -1.280154   -0.043891   -1.112309    ( 0.0000,  0.0000,  0.0000)
   7 O     -3.023210    0.467136    1.191750    ( 0.0000,  0.0000,  0.0000)
   8 O     -4.147405   -1.269737   -0.856207    ( 0.0000,  0.0000,  0.0000)
   9 O     -0.155894    1.692986    1.447725    ( 0.0000,  0.0000,  0.0000)
  10 O      4.874578    1.693016    1.185324    ( 0.0000,  0.0000,  0.0000)
  11 O      0.873163   -1.269706   -1.118625    ( 0.0000,  0.0000,  0.0000)
  12 Mn    -2.437108   -1.269902    0.302197    ( 0.0000,  0.0000,  1.0000)
  13 Mn    -1.866187    1.693156   -2.001927    ( 0.0000,  0.0000, -1.0000)
  14 Mn     3.154299    1.693181    0.026917    ( 0.0000,  0.0000, -1.0000)
  15 Mn     2.583444   -1.269877    2.331074    ( 0.0000,  0.0000,  1.0000)
  16 P     -0.543052   -1.269720   -1.734187    ( 0.0000,  0.0000,  0.0000)
  17 P     -3.760282    1.692974    0.569859    ( 0.0000,  0.0000,  0.0000)
  18 P      1.260300    1.693000    2.063344    ( 0.0000,  0.0000,  0.0000)
  19 P      4.477470   -1.269695   -0.240696    ( 0.0000,  0.0000,  0.0000)
  20 O     -0.544413   -1.269738    1.348523    ( 0.0000,  0.0000,  0.0000)
  21 O     -3.758895    1.692992   -0.955558    ( 0.0000,  0.0000,  0.0000)
  22 O      1.261690    1.693018   -1.019367    ( 0.0000,  0.0000,  0.0000)
  23 O      4.476045   -1.269713    1.284716    ( 0.0000,  0.0000,  0.0000)
  24 Li    -4.662027   -2.751322   -2.139440    ( 0.0000,  0.0000,  0.0000)
  25 Li     0.358703   -2.751277    0.164614    ( 0.0000,  0.0000,  0.0000)
  26 Li    -4.662011    0.211617   -2.139439    ( 0.0000,  0.0000,  0.0000)
  27 Li     0.358720    0.211628    0.164615    ( 0.0000,  0.0000,  0.0000)

Unit cell:
           periodic     x           y           z      points  spacing
  1. axis:    yes   10.041096    0.000054   -0.000022    60     0.1674
  2. axis:    yes    0.000032    5.925857    0.000001    35     0.1693
  3. axis:    yes   -0.000010    0.000001    4.608134    27     0.1707

  Lengths:  10.041096   5.925857   4.608134
  Angles:   89.999974  90.000250  89.999381

Effective grid spacing dv^(1/3) = 0.1691

                     log10-error:           total        iterations:
           time      wfs    density  force  energy       poisson  magmom
iter:   1  08:10:02                       -233.729456             +0.0000
iter:   2  08:10:22  -0.47  -0.95         -231.548717             +0.0036
iter:   3  08:10:42  -0.61  -1.00         -220.790642             +0.0037
iter:   4  08:11:02  -1.17  -1.31         -220.806045             +0.3241
iter:   5  08:11:21  -2.11  -1.40         -223.130725             +0.1762
iter:   6  08:11:41  -2.28  -1.38         -223.048894             +0.1542
iter:   7  08:12:01  -1.98  -1.55         -223.126902             +0.1961
iter:   8  08:12:21  -2.36  -1.82         -225.588459             -0.0719
iter:   9  08:12:40  -2.12  -1.96         -226.439212             +0.0973
iter:  10  08:13:00  -2.29  -2.04         -226.385265             +0.0235
iter:  11  08:13:20  -3.29  -2.10         -226.372545             +0.0052
iter:  12  08:13:40  -2.45  -2.10         -226.258027             -0.0009
iter:  13  08:14:00  -2.79  -2.30         -226.249713             +0.0013
iter:  14  08:14:19  -2.60  -2.56         -226.245388             -0.0004
iter:  15  08:14:39  -3.10  -2.59         -226.187879             -0.0000
iter:  16  08:14:59  -3.44  -2.92         -226.176707             -0.0000
iter:  17  08:15:19  -3.60  -3.07         -226.178536             -0.0000
iter:  18  08:15:38  -4.19  -3.03         -226.175449             -0.0000
iter:  19  08:15:58  -3.74  -3.17         -226.175892             -0.0000
iter:  20  08:16:18  -4.26  -3.22         -226.173726             -0.0000
iter:  21  08:16:37  -4.82  -3.53         -226.173677             -0.0000
iter:  22  08:16:57  -5.26  -3.66         -226.173556             -0.0000
iter:  23  08:17:17  -5.80  -3.87         -226.173493             -0.0000
iter:  24  08:17:36  -6.40  -4.02         -226.173476             -0.0000
iter:  25  08:17:56  -5.48  -4.08         -226.173349             -0.0000
iter:  26  08:18:16  -6.46  -4.33         -226.173346             -0.0000
iter:  27  08:18:35  -7.22  -4.37         -226.173344             -0.0000
iter:  28  08:18:55  -6.70  -4.41         -226.173335             -0.0000
iter:  29  08:19:15  -6.94  -4.74         -226.173336             -0.0000
iter:  30  08:19:39  -8.37  -4.86         -226.173335             -0.0000
iter:  31  08:19:59  -7.31  -4.88         -226.173333             +0.0000
iter:  32  08:20:23  -7.74  -5.03    -2.82-226.173334             -0.0000
iter:  33  08:20:47  -8.62  -5.12    -2.98-226.173333             -0.0000
iter:  34  08:21:12  -8.29  -5.30    -2.96-226.173333             -0.0000
iter:  35  08:21:36  -8.57  -5.45    -3.18-226.173333             -0.0000
iter:  36  08:22:01  -9.26  -5.60    -3.50-226.173333             -0.0000
iter:  37  08:22:25  -9.06  -5.70    -3.48-226.173333             -0.0000
iter:  38  08:22:49  -9.19  -5.81    -3.54-226.173333             -0.0000
iter:  39  08:23:13  -9.71  -5.97    -3.71-226.173333             -0.0000
iter:  40  08:23:38 -10.14  -6.18    -3.88-226.173333             -0.0000
iter:  41  08:24:02 -10.80  -6.47    -4.34-226.173333             +0.0000
iter:  42  08:24:26 -10.54  -6.54    -4.11-226.173333             +0.0000
iter:  43  08:24:51 -11.14  -6.77    -4.63-226.173333             +0.0000
iter:  44  08:25:15 -12.51  -6.89    -5.27-226.173333             +0.0000
iter:  45  08:25:39 -11.87  -6.92    -4.56-226.173333             +0.0000
iter:  46  08:26:04 -11.88  -7.19    -4.85-226.173333             +0.0000
iter:  47  08:26:28 -12.68  -7.41    -5.25-226.173333             +0.0000
iter:  48  08:26:52 -13.38  -7.42    -5.74-226.173333             -0.0000
iter:  49  08:27:17 -12.73  -7.47    -5.18-226.173333             -0.0000
iter:  50  08:27:41 -13.39  -7.68    -5.44-226.173333             -0.0000
iter:  51  08:28:05 -13.72  -7.74    -5.79-226.173333             +0.0000
iter:  52  08:28:29 -13.96  -7.83    -5.86-226.173333             -0.0000
iter:  53  08:28:54 -13.55  -7.89    -5.56-226.173333             -0.0000
iter:  54  08:29:18 -14.27  -8.11    -5.84-226.173333             -0.0000
iter:  55  08:29:42 -15.22  -8.43    -6.96-226.173333             -0.0000

Converged after 55 iterations.

Dipole moment: (18.319489, -2.307643, -4.522513) |e|*Ang

Total magnetic moment: (0.000000, 0.000000, -0.000000)
Local magnetic moments:
   0 O  ( 0.000000,  0.000000, -0.001805)
   1 O  ( 0.000000,  0.000000,  0.001910)
   2 O  ( 0.000000,  0.000000,  0.001790)
   3 O  ( 0.000000,  0.000000, -0.001798)
   4 O  ( 0.000000,  0.000000,  0.001785)
   5 O  ( 0.000000,  0.000000, -0.001793)
   6 O  ( 0.000000,  0.000000, -0.001810)
   7 O  ( 0.000000,  0.000000,  0.001915)
   8 O  ( 0.000000,  0.000000,  0.031014)
   9 O  ( 0.000000,  0.000000, -0.031004)
  10 O  ( 0.000000,  0.000000, -0.030737)
  11 O  ( 0.000000,  0.000000,  0.031183)
  12 Mn ( 0.000000,  0.000000,  4.395763)
  13 Mn ( 0.000000,  0.000000, -4.395765)
  14 Mn ( 0.000000,  0.000000, -4.397007)
  15 Mn ( 0.000000,  0.000000,  4.395883)
  16 P  ( 0.000000,  0.000000,  0.000849)
  17 P  ( 0.000000,  0.000000, -0.000685)
  18 P  ( 0.000000,  0.000000, -0.000873)
  19 P  ( 0.000000,  0.000000,  0.000909)
  20 O  ( 0.000000,  0.000000,  0.028417)
  21 O  ( 0.000000,  0.000000, -0.028464)
  22 O  ( 0.000000,  0.000000, -0.028620)
  23 O  ( 0.000000,  0.000000,  0.028437)
  24 Li ( 0.000000,  0.000000,  0.000033)
  25 Li ( 0.000000,  0.000000,  0.000000)
  26 Li ( 0.000000,  0.000000,  0.000033)
  27 Li ( 0.000000,  0.000000,  0.000000)

Energy contributions relative to reference atoms: (reference = -196157.275402)

Kinetic:       +278.262471
Potential:     -241.463072
External:        +0.000000
XC:            -264.860099
Entropy (-ST):   -0.000000
Local:           +1.887366
Free energy:   -226.173333
Extrapolated:  -226.173333

Spin contamination: 9.455530 electrons
Showing only first 2 kpts
                      Up                     Down
 Kpt  Band  Eigenvalues  Occupancy  Eigenvalues  Occupancy
  0    88      6.52849    0.00694      6.51126    0.00694
  0    89      6.56675    0.00694      6.56158    0.00694
  0    90      8.41683    0.00000      8.42491    0.00000
  0    91      8.45190    0.00000      8.45067    0.00000

  1    88      6.56633    0.00694      6.54836    0.00694
  1    89      6.59936    0.00694      6.59384    0.00694
  1    90      8.37230    0.00000      8.38114    0.00000
  1    91      8.40814    0.00000      8.40759    0.00000

Fermi level: 7.64123

Gap: 1.691 eV
Transition (v -> c):
  (s=0, k=49, n=89, [-0.08, -0.42, -0.12]) -> (s=0, k=86, n=90, [0.08, 0.08, 0.12])
Writing to born-0.01-10x+.gpw (mode='all')