User:   madkru@g043.nifl.fysik.dtu.dk
Date:   Mon Mar 29 19:47:54 2021
Arch:   x86_64
Pid:    9629
Python: 3.8.6
gpaw:   /home/niflheim/madkru/venv_madkru/gpaw/gpaw (e6f0d78a31)
_gpaw:  /home/niflheim/madkru/venv_madkru/gpaw/build/lib.linux-x86_64-sandybridge-3.8/
        _gpaw.cpython-38-x86_64-linux-gnu.so (e6f0d78a31)
ase:    /home/niflheim/madkru/venv_madkru/ase/ase (version 3.22.0b1-4d5a73cb29)
numpy:  /home/modules/software/SciPy-bundle/2020.11-foss-2020b/lib/python3.8/site-packages/numpy (version 1.19.4)
scipy:  /home/modules/software/SciPy-bundle/2020.11-foss-2020b/lib/python3.8/site-packages/scipy (version 1.5.4)
units:  Angstrom and eV
cores: 64
OpenMP: False
OMP_NUM_THREADS: 1

Input parameters:
  convergence: {bands: occupied,
                density: 0.0001,
                eigenstates: 4e-08,
                energy: 0.0005,
                forces: 1e-06}
  kpts: [6 6 4]
  mode: {ecut: 600.0,
         gammacentered: False,
         name: pw}
  occupations: {fixmagmom: False,
                name: fermi-dirac,
                width: 0.001}
  symmetry: {point_group: False,
             time_reversal: False}

System changes: positions, numbers, cell, pbc, initial_charges, initial_magmoms

Initialize ...

O-setup:
  name: Oxygen
  id: 9b9d51c344dea68c822856295a461509
  Z: 8.0
  valence: 6
  core: 2
  charge: 0.0
  file: /home/modules/software/GPAW-setups/0.9.20000/O.LDA.gz
  compensation charges: gauss, rc=0.21, lmax=2
  cutoffs: 1.17(filt), 0.83(core),
  valence states:
                energy  radius
    2s(2.00)   -23.752   0.688
    2p(4.00)    -9.195   0.598
    *s           3.459   0.688
    *p          18.016   0.598
    *d           0.000   0.619

  Using partial waves for O as LCAO basis

Mn-setup:
  name: Manganese
  id: 0d715a8018be061a6e9ea6f2d364ac92
  Z: 25.0
  valence: 15
  core: 10
  charge: 0.0
  file: /home/modules/software/GPAW-setups/0.9.20000/Mn.LDA.gz
  compensation charges: gauss, rc=0.38, lmax=2
  cutoffs: 2.14(filt), 0.86(core),
  valence states:
                energy  radius
    3s(2.00)   -85.387   1.275
    4s(2.00)    -5.282   1.275
    3p(6.00)   -54.493   1.281
    4p(0.00)    -1.471   1.281
    3d(5.00)    -7.009   1.138
    *d          20.203   1.138

[...]

P-setup:
  name: Phosphorus
  id: a5561c299094968922a179ab894d2e2d
  Z: 15.0
  valence: 5
  core: 10
  charge: 0.0
  file: /home/modules/software/GPAW-setups/0.9.20000/P.LDA.gz
  compensation charges: gauss, rc=0.30, lmax=2
  cutoffs: 1.69(filt), 1.81(core),
  valence states:
                energy  radius
    3s(2.00)   -14.015   0.953
    3p(3.00)    -5.596   0.953
    *s          13.197   0.953
    *p          21.615   0.953
    *d           0.000   0.953

[...]

Li-setup:
  name: Lithium
  id: b73562207f97a71b6967473b66fe8b65
  Z: 3.0
  valence: 1
  core: 2
  charge: 0.0
  file: /home/modules/software/GPAW-setups/0.9.20000/Li.LDA.gz
  compensation charges: gauss, rc=0.33, lmax=2
  cutoffs: 1.91(filt), 2.55(core),
  valence states:
                energy  radius
    2s(1.00)    -2.874   1.058
    2p(0.00)    -1.126   1.058
    *s          24.338   1.058

  Using partial waves for Li as LCAO basis

Reference energy: -196157.275402

Spin-polarized calculation.
Magnetic moment: 0.000000

Convergence criteria:
  Maximum total energy change: 0.0005 eV / electron
  Maximum integral of absolute density change: 0.0001 electrons
  Maximum integral of absolute eigenstate change: 4e-08 eV^2
  Maximum change in atomic force: 1e-06 eV / Ang
  Maximum number of iterations: 333

Symmetries present (total): 1

  ( 1  0  0)
  ( 0  1  0)
  ( 0  0  1)

144 k-points: 6 x 6 x 4 Monkhorst-Pack grid
144 k-points in the irreducible part of the Brillouin zone
       k-points in crystal coordinates                weights
   0:    -0.41666667   -0.41666667   -0.37500000          1/144
   1:    -0.41666667   -0.41666667   -0.12500000          1/144
   2:    -0.41666667   -0.41666667    0.12500000          1/144
   3:    -0.41666667   -0.41666667    0.37500000          1/144
   4:    -0.41666667   -0.25000000   -0.37500000          1/144
   5:    -0.41666667   -0.25000000   -0.12500000          1/144
   6:    -0.41666667   -0.25000000    0.12500000          1/144
   7:    -0.41666667   -0.25000000    0.37500000          1/144
   8:    -0.41666667   -0.08333333   -0.37500000          1/144
   9:    -0.41666667   -0.08333333   -0.12500000          1/144
          ...
 143:     0.41666667    0.41666667    0.37500000          1/144

Wave functions: Plane wave expansion
  Cutoff energy: 600.000 eV
  Number of coefficients (min, max): 9132, 9161
  Pulay-stress correction: 0.000000 eV/Ang^3 (de/decut=0.000000)
  Using FFTW library
  ScaLapack parameters: grid=1x1, blocksize=None
  Wavefunction extrapolation:
    Improved wavefunction reuse through dual PAW basis

  Fermi-Dirac: width=0.0010 eV

Eigensolver
   Davidson(niter=2)

Densities:
  Coarse grid: 60*35*27 grid
  Fine grid: 120*70*54 grid
  Total Charge: 0.000000

Density mixing:
  Method: difference
  Backend: pulay
  Linear mixing parameter: 0.05
  Mixing with 5 old densities
  Damping of long wave oscillations: 50

Hamiltonian:
  XC and Coulomb potentials evaluated on a 120*70*54 grid
  Using the LDA Exchange-Correlation functional

Total number of cores used: 64
Parallelization over k-points: 16
Domain decomposition: 2 x 2 x 1

Number of atoms: 28
Number of atomic orbitals: 148
Number of bands in calculation: 112
Number of valence electrons: 180
Bands to converge: occupied

... initialized

Initializing position-dependent things.

Density initialized from atomic densities
Creating initial wave functions:
  112 bands from LCAO basis set

               O     O  P  O
            PO           OMn     O
                  O          MO
            O        Li O
             Mn  Mn          OP
         O       O Li O
         Li     O P         O
       Li

Positions:
   0 O     -1.280122   -2.495595   -1.112331    ( 0.0000,  0.0000,  0.0000)
   1 O     -3.023238    2.918858    1.191723    ( 0.0000,  0.0000,  0.0000)
   2 O      1.997451    0.467212    1.441442    ( 0.0000,  0.0000,  0.0000)
   3 O      3.740343   -0.043905   -0.862614    ( 0.0000,  0.0000,  0.0000)
   4 O      1.997419    2.918835    1.441465    ( 0.0000,  0.0000,  0.0000)
   5 O      3.740372   -2.495531   -0.862587    ( 0.0000,  0.0000,  0.0000)
   6 O     -1.280154   -0.043891   -1.112309    ( 0.0000,  0.0000,  0.0000)
   7 O     -3.023210    0.467136    1.191750    ( 0.0000,  0.0000,  0.0000)
   8 O     -4.147405   -1.269737   -0.856207    ( 0.0000,  0.0000,  0.0000)
   9 O     -0.155894    1.692986    1.447725    ( 0.0000,  0.0000,  0.0000)
  10 O      4.864578    1.693016    1.185324    ( 0.0000,  0.0000,  0.0000)
  11 O      0.873163   -1.269706   -1.118625    ( 0.0000,  0.0000,  0.0000)
  12 Mn    -2.437108   -1.269902    0.302197    ( 0.0000,  0.0000,  1.0000)
  13 Mn    -1.866187    1.693156   -2.001927    ( 0.0000,  0.0000, -1.0000)
  14 Mn     3.154299    1.693181    0.026917    ( 0.0000,  0.0000, -1.0000)
  15 Mn     2.583444   -1.269877    2.331074    ( 0.0000,  0.0000,  1.0000)
  16 P     -0.543052   -1.269720   -1.734187    ( 0.0000,  0.0000,  0.0000)
  17 P     -3.760282    1.692974    0.569859    ( 0.0000,  0.0000,  0.0000)
  18 P      1.260300    1.693000    2.063344    ( 0.0000,  0.0000,  0.0000)
  19 P      4.477470   -1.269695   -0.240696    ( 0.0000,  0.0000,  0.0000)
  20 O     -0.544413   -1.269738    1.348523    ( 0.0000,  0.0000,  0.0000)
  21 O     -3.758895    1.692992   -0.955558    ( 0.0000,  0.0000,  0.0000)
  22 O      1.261690    1.693018   -1.019367    ( 0.0000,  0.0000,  0.0000)
  23 O      4.476045   -1.269713    1.284716    ( 0.0000,  0.0000,  0.0000)
  24 Li    -4.662027   -2.751322   -2.139440    ( 0.0000,  0.0000,  0.0000)
  25 Li     0.358703   -2.751277    0.164614    ( 0.0000,  0.0000,  0.0000)
  26 Li    -4.662011    0.201617   -2.139439    ( 0.0000,  0.0000,  0.0000)
  27 Li     0.358720    0.211628    0.164615    ( 0.0000,  0.0000,  0.0000)

Unit cell:
           periodic     x           y           z      points  spacing
  1. axis:    yes   10.041096    0.000054   -0.000022    60     0.1674
  2. axis:    yes    0.000032    5.925857    0.000001    35     0.1693
  3. axis:    yes   -0.000010    0.000001    4.608134    27     0.1707

  Lengths:  10.041096   5.925857   4.608134
  Angles:   89.999974  90.000250  89.999381

Effective grid spacing dv^(1/3) = 0.1691

                     log10-error:           total        iterations:
           time      wfs    density  force  energy       poisson  magmom
iter:   1  19:49:37                       -233.730244             +0.0000
iter:   2  19:49:57  -0.47  -0.95         -231.549995             -0.0053
iter:   3  19:50:17  -0.60  -1.00         -220.821177             -0.0055
iter:   4  19:50:37  -1.21  -1.31         -221.321721             -0.4210
iter:   5  19:50:57  -2.15  -1.38         -222.516085             -0.2410
iter:   6  19:51:17  -2.32  -1.38         -223.719510             -0.0802
iter:   7  19:51:37  -2.13  -1.54         -224.115472             +0.1282
iter:   8  19:51:57  -2.61  -1.74         -225.800809             +0.5557
iter:   9  19:52:17  -2.24  -1.98         -226.359793             +0.0495
iter:  10  19:52:37  -2.72  -2.10         -226.305931             +0.0356
iter:  11  19:52:56  -2.53  -2.18         -226.325537             +0.0100
iter:  12  19:53:16  -2.84  -2.36         -226.228252             +0.0116
iter:  13  19:53:36  -3.00  -2.57         -226.189896             +0.0033
iter:  14  19:53:56  -3.45  -2.70         -226.195984             +0.0021
iter:  15  19:54:16  -3.66  -2.98         -226.176872             -0.0002
iter:  16  19:54:36  -3.71  -3.11         -226.178250             +0.0003
iter:  17  19:54:56  -4.68  -3.35         -226.177790             +0.0002
iter:  18  19:55:16  -3.89  -3.39         -226.176870             +0.0001
iter:  19  19:55:36  -4.54  -3.53         -226.175359             +0.0001
iter:  20  19:55:56  -5.99  -3.89         -226.175250             +0.0000
iter:  21  19:56:16  -5.28  -3.96         -226.175423             +0.0000
iter:  22  19:56:35  -5.45  -3.98         -226.175196             -0.0000
iter:  23  19:56:55  -6.96  -4.41         -226.175219             -0.0000
iter:  24  19:57:15  -6.71  -4.46         -226.175239             +0.0000
iter:  25  19:57:35  -6.69  -4.53         -226.175214             +0.0000
iter:  26  19:58:00  -7.95  -4.85         -226.175216             +0.0000
iter:  27  19:58:25  -7.49  -4.88    -2.70-226.175213             +0.0000
iter:  28  19:58:50  -7.61  -5.06    -2.84-226.175213             +0.0000
iter:  29  19:59:15  -8.56  -5.16    -3.06-226.175212             +0.0000
iter:  30  19:59:40  -8.30  -5.29    -3.07-226.175213             -0.0000
iter:  31  20:00:05  -9.22  -5.41    -3.36-226.175213             -0.0000
iter:  32  20:00:30  -9.54  -5.55    -3.47-226.175213             -0.0000
iter:  33  20:00:55  -9.30  -5.65    -3.86-226.175213             -0.0000
iter:  34  20:01:19  -9.39  -5.85    -3.43-226.175213             -0.0000
iter:  35  20:01:44 -10.21  -6.17    -4.30-226.175213             -0.0000
iter:  36  20:02:09 -10.61  -6.20    -4.19-226.175213             -0.0000
iter:  37  20:02:34 -11.05  -6.37    -4.39-226.175213             -0.0000
iter:  38  20:02:59 -11.16  -6.53    -4.41-226.175213             -0.0000
iter:  39  20:03:24 -11.39  -6.62    -4.70-226.175213             -0.0000
iter:  40  20:03:49 -11.55  -6.68    -4.66-226.175213             -0.0000
iter:  41  20:04:14 -12.59  -6.80    -5.12-226.175213             -0.0000
iter:  42  20:04:39 -11.75  -6.85    -4.37-226.175213             +0.0000
iter:  43  20:05:04 -12.89  -7.08    -5.01-226.175213             +0.0000
iter:  44  20:05:29 -12.37  -7.18    -5.05-226.175213             -0.0000
iter:  45  20:05:54 -12.95  -7.30    -5.61-226.175213             +0.0000
iter:  46  20:06:19 -12.59  -7.37    -5.10-226.175213             -0.0000
iter:  47  20:06:44 -13.41  -7.69    -5.89-226.175213             +0.0000
iter:  48  20:07:09 -13.10  -7.78    -5.54-226.175213             +0.0000
iter:  49  20:07:34 -13.76  -7.91    -5.68-226.175213             +0.0000
iter:  50  20:07:59 -13.75  -8.04    -5.84-226.175213             +0.0000
iter:  51  20:08:24 -14.95  -8.24    -6.20-226.175213             +0.0000

Converged after 51 iterations.

Dipole moment: (18.326532, -2.256077, -4.524383) |e|*Ang

Total magnetic moment: (0.000000, 0.000000, 0.000000)
Local magnetic moments:
   0 O  ( 0.000000,  0.000000, -0.001790)
   1 O  ( 0.000000,  0.000000,  0.001841)
   2 O  ( 0.000000,  0.000000,  0.001830)
   3 O  ( 0.000000,  0.000000, -0.001748)
   4 O  ( 0.000000,  0.000000,  0.001822)
   5 O  ( 0.000000,  0.000000, -0.001772)
   6 O  ( 0.000000,  0.000000, -0.001794)
   7 O  ( 0.000000,  0.000000,  0.001875)
   8 O  ( 0.000000,  0.000000,  0.031036)
   9 O  ( 0.000000,  0.000000, -0.031074)
  10 O  ( 0.000000,  0.000000, -0.031157)
  11 O  ( 0.000000,  0.000000,  0.031118)
  12 Mn ( 0.000000,  0.000000,  4.395689)
  13 Mn ( 0.000000,  0.000000, -4.395803)
  14 Mn ( 0.000000,  0.000000, -4.395812)
  15 Mn ( 0.000000,  0.000000,  4.395731)
  16 P  ( 0.000000,  0.000000,  0.000862)
  17 P  ( 0.000000,  0.000000, -0.000866)
  18 P  ( 0.000000,  0.000000, -0.000876)
  19 P  ( 0.000000,  0.000000,  0.000869)
  20 O  ( 0.000000,  0.000000,  0.028431)
  21 O  ( 0.000000,  0.000000, -0.028440)
  22 O  ( 0.000000,  0.000000, -0.028407)
  23 O  ( 0.000000,  0.000000,  0.028395)
  24 Li ( 0.000000,  0.000000, -0.000002)
  25 Li ( 0.000000,  0.000000,  0.000000)
  26 Li ( 0.000000,  0.000000,  0.000013)
  27 Li ( 0.000000,  0.000000,  0.000000)

Energy contributions relative to reference atoms: (reference = -196157.275402)

Kinetic:       +277.625235
Potential:     -240.967451
External:        +0.000000
XC:            -264.721436
Entropy (-ST):   -0.000000
Local:           +1.888439
Free energy:   -226.175213
Extrapolated:  -226.175213

Spin contamination: 9.455313 electrons
Showing only first 2 kpts
                      Up                     Down
 Kpt  Band  Eigenvalues  Occupancy  Eigenvalues  Occupancy
  0    88      6.52898    1.00000      6.53200    1.00000
  0    89      6.56262    1.00000      6.56557    1.00000
  0    90      8.42808    0.00000      8.42539    0.00000
  0    91      8.44979    0.00000      8.44694    0.00000

  1    88      6.56742    1.00000      6.57046    1.00000
  1    89      6.59448    1.00000      6.59761    1.00000
  1    90      8.38442    0.00000      8.38173    0.00000
  1    91      8.40662    0.00000      8.40386    0.00000

Fermi level: 7.59278

Gap: 1.697 eV
Transition (v -> c):
  (s=1, k=73, n=89, [0.08, -0.42, -0.12]) -> (s=1, k=57, n=90, [-0.08, -0.08, -0.12])
Writing to born-0.01-26y-.gpw (mode='all')