User:   madkru@g043.nifl.fysik.dtu.dk
Date:   Mon Mar 29 22:21:04 2021
Arch:   x86_64
Pid:    9629
Python: 3.8.6
gpaw:   /home/niflheim/madkru/venv_madkru/gpaw/gpaw (e6f0d78a31)
_gpaw:  /home/niflheim/madkru/venv_madkru/gpaw/build/lib.linux-x86_64-sandybridge-3.8/
        _gpaw.cpython-38-x86_64-linux-gnu.so (e6f0d78a31)
ase:    /home/niflheim/madkru/venv_madkru/ase/ase (version 3.22.0b1-4d5a73cb29)
numpy:  /home/modules/software/SciPy-bundle/2020.11-foss-2020b/lib/python3.8/site-packages/numpy (version 1.19.4)
scipy:  /home/modules/software/SciPy-bundle/2020.11-foss-2020b/lib/python3.8/site-packages/scipy (version 1.5.4)
units:  Angstrom and eV
cores: 64
OpenMP: False
OMP_NUM_THREADS: 1

Input parameters:
  convergence: {bands: occupied,
                density: 0.0001,
                eigenstates: 4e-08,
                energy: 0.0005,
                forces: 1e-06}
  kpts: [6 6 4]
  mode: {ecut: 600.0,
         gammacentered: False,
         name: pw}
  occupations: {fixmagmom: False,
                name: fermi-dirac,
                width: 0.001}
  symmetry: {point_group: False,
             time_reversal: False}

System changes: positions, numbers, cell, pbc, initial_charges, initial_magmoms

Initialize ...

O-setup:
  name: Oxygen
  id: 9b9d51c344dea68c822856295a461509
  Z: 8.0
  valence: 6
  core: 2
  charge: 0.0
  file: /home/modules/software/GPAW-setups/0.9.20000/O.LDA.gz
  compensation charges: gauss, rc=0.21, lmax=2
  cutoffs: 1.17(filt), 0.83(core),
  valence states:
                energy  radius
    2s(2.00)   -23.752   0.688
    2p(4.00)    -9.195   0.598
    *s           3.459   0.688
    *p          18.016   0.598
    *d           0.000   0.619

  Using partial waves for O as LCAO basis

Mn-setup:
  name: Manganese
  id: 0d715a8018be061a6e9ea6f2d364ac92
  Z: 25.0
  valence: 15
  core: 10
  charge: 0.0
  file: /home/modules/software/GPAW-setups/0.9.20000/Mn.LDA.gz
  compensation charges: gauss, rc=0.38, lmax=2
  cutoffs: 2.14(filt), 0.86(core),
  valence states:
                energy  radius
    3s(2.00)   -85.387   1.275
    4s(2.00)    -5.282   1.275
    3p(6.00)   -54.493   1.281
    4p(0.00)    -1.471   1.281
    3d(5.00)    -7.009   1.138
    *d          20.203   1.138

[...]

P-setup:
  name: Phosphorus
  id: a5561c299094968922a179ab894d2e2d
  Z: 15.0
  valence: 5
  core: 10
  charge: 0.0
  file: /home/modules/software/GPAW-setups/0.9.20000/P.LDA.gz
  compensation charges: gauss, rc=0.30, lmax=2
  cutoffs: 1.69(filt), 1.81(core),
  valence states:
                energy  radius
    3s(2.00)   -14.015   0.953
    3p(3.00)    -5.596   0.953
    *s          13.197   0.953
    *p          21.615   0.953
    *d           0.000   0.953

[...]

Li-setup:
  name: Lithium
  id: b73562207f97a71b6967473b66fe8b65
  Z: 3.0
  valence: 1
  core: 2
  charge: 0.0
  file: /home/modules/software/GPAW-setups/0.9.20000/Li.LDA.gz
  compensation charges: gauss, rc=0.33, lmax=2
  cutoffs: 1.91(filt), 2.55(core),
  valence states:
                energy  radius
    2s(1.00)    -2.874   1.058
    2p(0.00)    -1.126   1.058
    *s          24.338   1.058

  Using partial waves for Li as LCAO basis

Reference energy: -196157.275402

Spin-polarized calculation.
Magnetic moment: 0.000000

Convergence criteria:
  Maximum total energy change: 0.0005 eV / electron
  Maximum integral of absolute density change: 0.0001 electrons
  Maximum integral of absolute eigenstate change: 4e-08 eV^2
  Maximum change in atomic force: 1e-06 eV / Ang
  Maximum number of iterations: 333

Symmetries present (total): 1

  ( 1  0  0)
  ( 0  1  0)
  ( 0  0  1)

144 k-points: 6 x 6 x 4 Monkhorst-Pack grid
144 k-points in the irreducible part of the Brillouin zone
       k-points in crystal coordinates                weights
   0:    -0.41666667   -0.41666667   -0.37500000          1/144
   1:    -0.41666667   -0.41666667   -0.12500000          1/144
   2:    -0.41666667   -0.41666667    0.12500000          1/144
   3:    -0.41666667   -0.41666667    0.37500000          1/144
   4:    -0.41666667   -0.25000000   -0.37500000          1/144
   5:    -0.41666667   -0.25000000   -0.12500000          1/144
   6:    -0.41666667   -0.25000000    0.12500000          1/144
   7:    -0.41666667   -0.25000000    0.37500000          1/144
   8:    -0.41666667   -0.08333333   -0.37500000          1/144
   9:    -0.41666667   -0.08333333   -0.12500000          1/144
          ...
 143:     0.41666667    0.41666667    0.37500000          1/144

Wave functions: Plane wave expansion
  Cutoff energy: 600.000 eV
  Number of coefficients (min, max): 9132, 9161
  Pulay-stress correction: 0.000000 eV/Ang^3 (de/decut=0.000000)
  Using FFTW library
  ScaLapack parameters: grid=1x1, blocksize=None
  Wavefunction extrapolation:
    Improved wavefunction reuse through dual PAW basis

  Fermi-Dirac: width=0.0010 eV

Eigensolver
   Davidson(niter=2)

Densities:
  Coarse grid: 60*35*27 grid
  Fine grid: 120*70*54 grid
  Total Charge: 0.000000

Density mixing:
  Method: difference
  Backend: pulay
  Linear mixing parameter: 0.05
  Mixing with 5 old densities
  Damping of long wave oscillations: 50

Hamiltonian:
  XC and Coulomb potentials evaluated on a 120*70*54 grid
  Using the LDA Exchange-Correlation functional

Total number of cores used: 64
Parallelization over k-points: 16
Domain decomposition: 2 x 2 x 1

Number of atoms: 28
Number of atomic orbitals: 148
Number of bands in calculation: 112
Number of valence electrons: 180
Bands to converge: occupied

... initialized

Initializing position-dependent things.

Density initialized from atomic densities
Creating initial wave functions:
  112 bands from LCAO basis set

               O     O  P  O
            PO           OMn     O
                  O          MO
            O        Li O
             Mn  Mn          OP
         O       O Li O
         Li     O P         O
       Li

Positions:
   0 O     -1.280122   -2.495595   -1.112331    ( 0.0000,  0.0000,  0.0000)
   1 O     -3.023238    2.918858    1.191723    ( 0.0000,  0.0000,  0.0000)
   2 O      1.997451    0.467212    1.441442    ( 0.0000,  0.0000,  0.0000)
   3 O      3.740343   -0.043905   -0.862614    ( 0.0000,  0.0000,  0.0000)
   4 O      1.997419    2.918835    1.441465    ( 0.0000,  0.0000,  0.0000)
   5 O      3.740372   -2.495531   -0.862587    ( 0.0000,  0.0000,  0.0000)
   6 O     -1.280154   -0.043891   -1.112309    ( 0.0000,  0.0000,  0.0000)
   7 O     -3.023210    0.467136    1.191750    ( 0.0000,  0.0000,  0.0000)
   8 O     -4.147405   -1.269737   -0.856207    ( 0.0000,  0.0000,  0.0000)
   9 O     -0.155894    1.692986    1.447725    ( 0.0000,  0.0000,  0.0000)
  10 O      4.864578    1.693016    1.185324    ( 0.0000,  0.0000,  0.0000)
  11 O      0.873163   -1.269706   -1.118625    ( 0.0000,  0.0000,  0.0000)
  12 Mn    -2.437108   -1.269902    0.302197    ( 0.0000,  0.0000,  1.0000)
  13 Mn    -1.866187    1.693156   -2.001927    ( 0.0000,  0.0000, -1.0000)
  14 Mn     3.154299    1.693181    0.026917    ( 0.0000,  0.0000, -1.0000)
  15 Mn     2.583444   -1.269877    2.331074    ( 0.0000,  0.0000,  1.0000)
  16 P     -0.543052   -1.269720   -1.734187    ( 0.0000,  0.0000,  0.0000)
  17 P     -3.760282    1.692974    0.569859    ( 0.0000,  0.0000,  0.0000)
  18 P      1.260300    1.693000    2.063344    ( 0.0000,  0.0000,  0.0000)
  19 P      4.477470   -1.269695   -0.240696    ( 0.0000,  0.0000,  0.0000)
  20 O     -0.544413   -1.269738    1.348523    ( 0.0000,  0.0000,  0.0000)
  21 O     -3.758895    1.692992   -0.955558    ( 0.0000,  0.0000,  0.0000)
  22 O      1.261690    1.693018   -1.019367    ( 0.0000,  0.0000,  0.0000)
  23 O      4.476045   -1.269713    1.284716    ( 0.0000,  0.0000,  0.0000)
  24 Li    -4.662027   -2.751322   -2.139440    ( 0.0000,  0.0000,  0.0000)
  25 Li     0.358703   -2.751277    0.164614    ( 0.0000,  0.0000,  0.0000)
  26 Li    -4.662011    0.211617   -2.139439    ( 0.0000,  0.0000,  0.0000)
  27 Li     0.368720    0.211628    0.164615    ( 0.0000,  0.0000,  0.0000)

Unit cell:
           periodic     x           y           z      points  spacing
  1. axis:    yes   10.041096    0.000054   -0.000022    60     0.1674
  2. axis:    yes    0.000032    5.925857    0.000001    35     0.1693
  3. axis:    yes   -0.000010    0.000001    4.608134    27     0.1707

  Lengths:  10.041096   5.925857   4.608134
  Angles:   89.999974  90.000250  89.999381

Effective grid spacing dv^(1/3) = 0.1691

                     log10-error:           total        iterations:
           time      wfs    density  force  energy       poisson  magmom
iter:   1  22:22:47                       -233.730339             +0.0000
iter:   2  22:23:07  -0.47  -0.95         -231.550023             +0.0040
iter:   3  22:23:27  -0.61  -1.00         -220.819369             +0.0041
iter:   4  22:23:47  -1.21  -1.31         -221.284043             +0.4255
iter:   5  22:24:07  -2.15  -1.38         -222.539776             +0.2406
iter:   6  22:24:27  -2.37  -1.38         -223.567809             +0.1377
iter:   7  22:24:47  -2.02  -1.54         -223.381913             +0.1400
iter:   8  22:25:07  -2.41  -1.91         -225.749051             +0.0409
iter:   9  22:25:27  -2.16  -2.07         -226.327695             -0.0153
iter:  10  22:25:47  -2.38  -2.13         -226.321561             -0.0026
iter:  11  22:26:07  -2.78  -2.29         -226.353956             +0.0002
iter:  12  22:26:27  -2.50  -2.38         -226.205771             +0.0004
iter:  13  22:26:47  -2.73  -2.40         -226.196268             +0.0001
iter:  14  22:27:07  -3.43  -2.74         -226.186339             -0.0001
iter:  15  22:27:27  -3.67  -2.90         -226.176072             -0.0000
iter:  16  22:27:46  -4.45  -3.15         -226.176053             -0.0000
iter:  17  22:28:06  -4.81  -3.18         -226.176352             +0.0000
iter:  18  22:28:26  -5.70  -3.28         -226.176239             +0.0000
iter:  19  22:28:46  -5.56  -3.31         -226.175842             +0.0000
iter:  20  22:29:06  -5.07  -3.34         -226.175691             +0.0000
iter:  21  22:29:26  -4.82  -3.51         -226.175399             +0.0000
iter:  22  22:29:46  -6.09  -3.63         -226.175371             +0.0000
iter:  23  22:30:06  -5.30  -3.71         -226.175502             +0.0000
iter:  24  22:30:26  -6.18  -3.91         -226.175427             +0.0000
iter:  25  22:30:46  -6.37  -4.04         -226.175363             -0.0000
iter:  26  22:31:06  -6.13  -4.12         -226.175311             +0.0000
iter:  27  22:31:26  -6.69  -4.23         -226.175299             -0.0000
iter:  28  22:31:46  -6.90  -4.33         -226.175301             +0.0000
iter:  29  22:32:06  -6.82  -4.44         -226.175293             +0.0000
iter:  30  22:32:26  -7.16  -4.82         -226.175293             +0.0000
iter:  31  22:32:51  -8.32  -5.08         -226.175293             +0.0000
iter:  32  22:33:16  -7.87  -5.10    -2.84-226.175293             +0.0000
iter:  33  22:33:41  -8.24  -5.14    -3.14-226.175293             +0.0000
iter:  34  22:34:06  -9.42  -5.26    -3.37-226.175293             +0.0000
iter:  35  22:34:31  -8.61  -5.33    -3.18-226.175293             -0.0000
iter:  36  22:34:56  -8.38  -5.45    -3.09-226.175293             +0.0000
iter:  37  22:35:21  -9.10  -5.48    -3.57-226.175293             -0.0000
iter:  38  22:35:46  -9.40  -5.74    -4.07-226.175293             -0.0000
iter:  39  22:36:11  -9.25  -5.83    -3.40-226.175293             -0.0000
iter:  40  22:36:35  -9.87  -5.98    -4.05-226.175293             -0.0000
iter:  41  22:37:00  -9.61  -6.27    -3.88-226.175293             -0.0000
iter:  42  22:37:25 -10.18  -6.23    -4.20-226.175293             -0.0000
iter:  43  22:37:50 -11.09  -6.63    -4.62-226.175293             -0.0000
iter:  44  22:38:15 -11.89  -6.78    -4.87-226.175293             -0.0000
iter:  45  22:38:40 -12.25  -6.84    -5.05-226.175293             -0.0000
iter:  46  22:39:05 -11.98  -6.87    -4.76-226.175293             -0.0000
iter:  47  22:39:30 -12.31  -6.96    -4.94-226.175293             -0.0000
iter:  48  22:39:55 -12.86  -7.04    -4.96-226.175293             -0.0000
iter:  49  22:40:20 -12.78  -7.16    -5.22-226.175293             -0.0000
iter:  50  22:40:45 -12.30  -7.25    -5.05-226.175293             -0.0000
iter:  51  22:41:10 -12.99  -7.35    -5.79-226.175293             -0.0000
iter:  52  22:41:35 -13.12  -7.39    -5.04-226.175293             -0.0000
iter:  53  22:42:00 -13.49  -7.76    -5.86-226.175293             -0.0000
iter:  54  22:42:24 -13.79  -7.89    -5.50-226.175293             -0.0000
iter:  55  22:42:49 -13.33  -8.01    -5.53-226.175293             -0.0000
iter:  56  22:43:14 -14.23  -8.08    -5.73-226.175293             -0.0000
iter:  57  22:43:39 -14.35  -8.20    -6.20-226.175293             -0.0000

Converged after 57 iterations.

Dipole moment: (18.309063, -2.306502, -4.524107) |e|*Ang

Total magnetic moment: (0.000000, 0.000000, -0.000000)
Local magnetic moments:
   0 O  ( 0.000000,  0.000000, -0.001810)
   1 O  ( 0.000000,  0.000000,  0.001806)
   2 O  ( 0.000000,  0.000000,  0.001784)
   3 O  ( 0.000000,  0.000000, -0.001812)
   4 O  ( 0.000000,  0.000000,  0.001802)
   5 O  ( 0.000000,  0.000000, -0.001807)
   6 O  ( 0.000000,  0.000000, -0.001839)
   7 O  ( 0.000000,  0.000000,  0.001811)
   8 O  ( 0.000000,  0.000000,  0.031057)
   9 O  ( 0.000000,  0.000000, -0.031051)
  10 O  ( 0.000000,  0.000000, -0.031136)
  11 O  ( 0.000000,  0.000000,  0.031142)
  12 Mn ( 0.000000,  0.000000,  4.395834)
  13 Mn ( 0.000000,  0.000000, -4.395837)
  14 Mn ( 0.000000,  0.000000, -4.395665)
  15 Mn ( 0.000000,  0.000000,  4.395696)
  16 P  ( 0.000000,  0.000000,  0.000852)
  17 P  ( 0.000000,  0.000000, -0.000857)
  18 P  ( 0.000000,  0.000000, -0.000885)
  19 P  ( 0.000000,  0.000000,  0.000878)
  20 O  ( 0.000000,  0.000000,  0.028407)
  21 O  ( 0.000000,  0.000000, -0.028407)
  22 O  ( 0.000000,  0.000000, -0.028432)
  23 O  ( 0.000000,  0.000000,  0.028428)
  24 Li ( 0.000000,  0.000000,  0.000000)
  25 Li ( 0.000000,  0.000000, -0.000001)
  26 Li ( 0.000000,  0.000000,  0.000000)
  27 Li ( 0.000000,  0.000000,  0.000027)

Energy contributions relative to reference atoms: (reference = -196157.275402)

Kinetic:       +277.624641
Potential:     -240.967063
External:        +0.000000
XC:            -264.721313
Entropy (-ST):   -0.000000
Local:           +1.888441
Free energy:   -226.175293
Extrapolated:  -226.175293

Spin contamination: 9.455313 electrons
Showing only first 2 kpts
                      Up                     Down
 Kpt  Band  Eigenvalues  Occupancy  Eigenvalues  Occupancy
  0    88      6.52997    1.00000      6.53036    1.00000
  0    89      6.56469    1.00000      6.56415    1.00000
  0    90      8.42554    0.00000      8.42652    0.00000
  0    91      8.44967    0.00000      8.44843    0.00000

  1    88      6.56818    1.00000      6.56887    1.00000
  1    89      6.59687    1.00000      6.59604    1.00000
  1    90      8.38200    0.00000      8.38278    0.00000
  1    91      8.40637    0.00000      8.40545    0.00000

Fermi level: 7.57246

Gap: 1.699 eV
Transition (v -> c):
  (s=0, k=69, n=89, [-0.08, 0.42, -0.12]) -> (s=1, k=81, n=90, [0.08, -0.08, -0.12])
Writing to born-0.01-27x+.gpw (mode='all')