User:   madkru@i008.nifl.fysik.dtu.dk
Date:   Fri Mar 26 05:58:19 2021
Arch:   x86_64
Pid:    26969
Python: 3.7.4
gpaw:   /home/niflheim/madkru/venv_folder/gpaw/gpaw (d224efde0f)
_gpaw:  /home/niflheim/madkru/venv_folder/gpaw/build/lib.linux-x86_64-ivybridge-3.7/
        _gpaw.cpython-37m-x86_64-linux-gnu.so (4fd39e8b1e)
ase:    /home/niflheim/madkru/venv_folder/ase/ase (version 3.21.0b1-4d5a73cb29)
numpy:  /home/niflheim/madkru/venv_folder/lib/python3.7/site-packages/numpy (version 1.19.4)
scipy:  /home/niflheim/madkru/venv_folder/lib/python3.7/site-packages/scipy (version 1.5.4)
units:  Angstrom and eV
cores: 64
OMP_NUM_THREADS: 1

Input parameters:
  convergence: {bands: occupied,
                density: 0.0001,
                eigenstates: 4e-08,
                energy: 0.0005,
                forces: 1e-06}
  kpts: [6 6 4]
  mode: {ecut: 600.0,
         gammacentered: False,
         name: pw}
  occupations: {fixmagmom: False,
                name: fermi-dirac,
                width: 0.001}
  symmetry: {point_group: False,
             time_reversal: False}

System changes: positions, numbers, cell, pbc, initial_charges, initial_magmoms

Initialize ...

O-setup:
  name: Oxygen
  id: 9b9d51c344dea68c822856295a461509
  Z: 8.0
  valence: 6
  core: 2
  charge: 0.0
  file: /home/modules/software/GPAW-setups/0.9.20000/O.LDA.gz
  compensation charges: gauss, rc=0.21, lmax=2
  cutoffs: 1.17(filt), 0.83(core),
  valence states:
                energy  radius
    2s(2.00)   -23.752   0.688
    2p(4.00)    -9.195   0.598
    *s           3.459   0.688
    *p          18.016   0.598
    *d           0.000   0.619

  Using partial waves for O as LCAO basis

Mn-setup:
  name: Manganese
  id: 0d715a8018be061a6e9ea6f2d364ac92
  Z: 25.0
  valence: 15
  core: 10
  charge: 0.0
  file: /home/modules/software/GPAW-setups/0.9.20000/Mn.LDA.gz
  compensation charges: gauss, rc=0.38, lmax=2
  cutoffs: 2.14(filt), 0.86(core),
  valence states:
                energy  radius
    3s(2.00)   -85.387   1.275
    4s(2.00)    -5.282   1.275
    3p(6.00)   -54.493   1.281
    4p(0.00)    -1.471   1.281
    3d(5.00)    -7.009   1.138
    *d          20.203   1.138

[...]

P-setup:
  name: Phosphorus
  id: a5561c299094968922a179ab894d2e2d
  Z: 15.0
  valence: 5
  core: 10
  charge: 0.0
  file: /home/modules/software/GPAW-setups/0.9.20000/P.LDA.gz
  compensation charges: gauss, rc=0.30, lmax=2
  cutoffs: 1.69(filt), 1.81(core),
  valence states:
                energy  radius
    3s(2.00)   -14.015   0.953
    3p(3.00)    -5.596   0.953
    *s          13.197   0.953
    *p          21.615   0.953
    *d           0.000   0.953

[...]

Li-setup:
  name: Lithium
  id: b73562207f97a71b6967473b66fe8b65
  Z: 3.0
  valence: 1
  core: 2
  charge: 0.0
  file: /home/modules/software/GPAW-setups/0.9.20000/Li.LDA.gz
  compensation charges: gauss, rc=0.33, lmax=2
  cutoffs: 1.91(filt), 2.55(core),
  valence states:
                energy  radius
    2s(1.00)    -2.874   1.058
    2p(0.00)    -1.126   1.058
    *s          24.338   1.058

  Using partial waves for Li as LCAO basis

Reference energy: -196157.275402

Spin-polarized calculation.
Magnetic moment: 0.000000

Convergence criteria:
  Maximum total energy change: 0.0005 eV / electron
  Maximum integral of absolute density change: 0.0001 electrons
  Maximum integral of absolute eigenstate change: 4e-08 eV^2
  Maximum change in atomic force: 1e-06 eV / Ang
  Maximum number of iterations: 333

Symmetries present (total): 1

  ( 1  0  0)
  ( 0  1  0)
  ( 0  0  1)

144 k-points: 6 x 6 x 4 Monkhorst-Pack grid
144 k-points in the irreducible part of the Brillouin zone
       k-points in crystal coordinates                weights
   0:    -0.41666667   -0.41666667   -0.37500000          1/144
   1:    -0.41666667   -0.41666667   -0.12500000          1/144
   2:    -0.41666667   -0.41666667    0.12500000          1/144
   3:    -0.41666667   -0.41666667    0.37500000          1/144
   4:    -0.41666667   -0.25000000   -0.37500000          1/144
   5:    -0.41666667   -0.25000000   -0.12500000          1/144
   6:    -0.41666667   -0.25000000    0.12500000          1/144
   7:    -0.41666667   -0.25000000    0.37500000          1/144
   8:    -0.41666667   -0.08333333   -0.37500000          1/144
   9:    -0.41666667   -0.08333333   -0.12500000          1/144
          ...
 143:     0.41666667    0.41666667    0.37500000          1/144

Wave functions: Plane wave expansion
  Cutoff energy: 600.000 eV
  Number of coefficients (min, max): 9132, 9161
  Pulay-stress correction: 0.000000 eV/Ang^3 (de/decut=0.000000)
  Using FFTW library
  ScaLapack parameters: grid=1x1, blocksize=None
  Wavefunction extrapolation:
    Improved wavefunction reuse through dual PAW basis

  Fermi-Dirac: width=0.0010 eV

Eigensolver
   Davidson(niter=2, smin=None, normalize=True)

Densities:
  Coarse grid: 60*35*27 grid
  Fine grid: 120*70*54 grid
  Total Charge: 0.000000

Density mixing:
  Method: difference
  Backend: pulay
  Linear mixing parameter: 0.05
  Mixing with 5 old densities
  Damping of long wave oscillations: 50

Hamiltonian:
  XC and Coulomb potentials evaluated on a 120*70*54 grid
  Using the LDA Exchange-Correlation functional

Total number of cores used: 64
Parallelization over k-points: 16
Domain decomposition: 2 x 2 x 1

Number of atoms: 28
Number of atomic orbitals: 148
Number of bands in calculation: 112
Number of valence electrons: 180
Bands to converge: occupied

... initialized

Initializing position-dependent things.

Density initialized from atomic densities
Creating initial wave functions:
  112 bands from LCAO basis set

               O     O  P  O
            PO           OMn     O
                  O          MO
            O        Li O
             Mn  Mn          OP
         O       O Li O
         Li     O P         O
       Li

Positions:
   0 O     -1.280122   -2.495595   -1.112331    ( 0.0000,  0.0000,  0.0000)
   1 O     -3.023238    2.918858    1.191723    ( 0.0000,  0.0000,  0.0000)
   2 O      1.997451    0.467212    1.441442    ( 0.0000,  0.0000,  0.0000)
   3 O      3.740343   -0.043905   -0.862614    ( 0.0000,  0.0000,  0.0000)
   4 O      1.997419    2.918835    1.441465    ( 0.0000,  0.0000,  0.0000)
   5 O      3.740372   -2.495531   -0.862587    ( 0.0000,  0.0000,  0.0000)
   6 O     -1.280154   -0.043891   -1.112309    ( 0.0000,  0.0000,  0.0000)
   7 O     -3.023210    0.467136    1.191750    ( 0.0000,  0.0000,  0.0000)
   8 O     -4.147405   -1.269737   -0.856207    ( 0.0000,  0.0000,  0.0000)
   9 O     -0.155894    1.692986    1.447725    ( 0.0000,  0.0000,  0.0000)
  10 O      4.864578    1.693016    1.185324    ( 0.0000,  0.0000,  0.0000)
  11 O      0.873163   -1.269706   -1.118625    ( 0.0000,  0.0000,  0.0000)
  12 Mn    -2.437108   -1.269902    0.302197    ( 0.0000,  0.0000,  1.0000)
  13 Mn    -1.866187    1.693156   -2.001927    ( 0.0000,  0.0000, -1.0000)
  14 Mn     3.154299    1.693181    0.026917    ( 0.0000,  0.0000, -1.0000)
  15 Mn     2.583444   -1.269877    2.331074    ( 0.0000,  0.0000,  1.0000)
  16 P     -0.543052   -1.269720   -1.734187    ( 0.0000,  0.0000,  0.0000)
  17 P     -3.760282    1.692974    0.569859    ( 0.0000,  0.0000,  0.0000)
  18 P      1.260300    1.693000    2.063344    ( 0.0000,  0.0000,  0.0000)
  19 P      4.477470   -1.269695   -0.240696    ( 0.0000,  0.0000,  0.0000)
  20 O     -0.544413   -1.269738    1.348523    ( 0.0000,  0.0000,  0.0000)
  21 O     -3.758895    1.692992   -0.955558    ( 0.0000,  0.0000,  0.0000)
  22 O      1.261690    1.693018   -1.019367    ( 0.0000,  0.0000,  0.0000)
  23 O      4.476045   -1.269713    1.284716    ( 0.0000,  0.0000,  0.0000)
  24 Li    -4.662027   -2.751322   -2.139440    ( 0.0000,  0.0000,  0.0000)
  25 Li     0.368703   -2.751277    0.164614    ( 0.0000,  0.0000,  0.0000)
  26 Li    -4.662011    0.211617   -2.139439    ( 0.0000,  0.0000,  0.0000)
  27 Li     0.358720    0.211628    0.164615    ( 0.0000,  0.0000,  0.0000)

Unit cell:
           periodic     x           y           z      points  spacing
  1. axis:    yes   10.041096    0.000054   -0.000022    60     0.1674
  2. axis:    yes    0.000032    5.925857    0.000001    35     0.1693
  3. axis:    yes   -0.000010    0.000001    4.608134    27     0.1707

  Lengths:  10.041096   5.925857   4.608134
  Angles:   89.999974  90.000250  89.999381

Effective grid spacing dv^(1/3) = 0.1691

                     log10-error:           total        iterations:
           time      wfs    density  force  energy       poisson  magmom
iter:   1  05:59:52                       -233.730339             +0.0000
iter:   2  06:00:12  -0.47  -0.95         -231.550023             +0.0040
iter:   3  06:00:32  -0.61  -1.00         -220.819379             +0.0041
iter:   4  06:00:52  -1.21  -1.31         -221.284214             +0.4255
iter:   5  06:01:12  -2.15  -1.38         -222.539641             +0.2406
iter:   6  06:01:31  -2.37  -1.38         -223.567961             +0.1376
iter:   7  06:01:51  -2.02  -1.54         -223.381943             +0.1399
iter:   8  06:02:11  -2.41  -1.91         -225.749125             +0.0409
iter:   9  06:02:31  -2.16  -2.07         -226.327749             -0.0153
iter:  10  06:02:50  -2.38  -2.13         -226.321579             -0.0026
iter:  11  06:03:10  -2.78  -2.29         -226.353925             +0.0002
iter:  12  06:03:30  -2.51  -2.38         -226.205759             +0.0004
iter:  13  06:03:50  -2.73  -2.40         -226.196243             +0.0001
iter:  14  06:04:10  -3.43  -2.74         -226.186335             -0.0001
iter:  15  06:04:29  -3.67  -2.90         -226.176072             -0.0000
iter:  16  06:04:49  -4.45  -3.15         -226.176052             -0.0000
iter:  17  06:05:09  -4.81  -3.18         -226.176352             +0.0000
iter:  18  06:05:29  -5.70  -3.28         -226.176239             +0.0000
iter:  19  06:05:48  -5.56  -3.31         -226.175842             +0.0000
iter:  20  06:06:08  -5.06  -3.34         -226.175690             +0.0000
iter:  21  06:06:28  -4.81  -3.51         -226.175397             +0.0000
iter:  22  06:06:47  -6.09  -3.63         -226.175370             +0.0000
iter:  23  06:07:07  -5.30  -3.71         -226.175500             +0.0000
iter:  24  06:07:27  -6.18  -3.91         -226.175426             +0.0000
iter:  25  06:07:46  -6.38  -4.04         -226.175362             -0.0000
iter:  26  06:08:06  -6.13  -4.12         -226.175311             +0.0000
iter:  27  06:08:26  -6.70  -4.23         -226.175299             -0.0000
iter:  28  06:08:45  -6.90  -4.33         -226.175301             +0.0000
iter:  29  06:09:05  -6.82  -4.44         -226.175293             +0.0000
iter:  30  06:09:25  -7.16  -4.82         -226.175293             +0.0000
iter:  31  06:09:49  -8.33  -5.07         -226.175293             +0.0000
iter:  32  06:10:14  -7.88  -5.09    -2.84-226.175293             +0.0000
iter:  33  06:10:38  -8.25  -5.14    -3.13-226.175293             +0.0000
iter:  34  06:11:02  -9.40  -5.25    -3.38-226.175293             +0.0000
iter:  35  06:11:27  -8.58  -5.32    -3.17-226.175293             -0.0000
iter:  36  06:11:51  -8.43  -5.44    -3.10-226.175293             +0.0000
iter:  37  06:12:15  -9.25  -5.46    -3.65-226.175293             +0.0000
iter:  38  06:12:40  -8.99  -5.67    -3.81-226.175293             -0.0000
iter:  39  06:13:04  -9.04  -5.74    -3.46-226.175293             -0.0000
iter:  40  06:13:28 -10.20  -6.04    -4.08-226.175293             -0.0000
iter:  41  06:13:53 -10.19  -6.26    -4.12-226.175293             -0.0000
iter:  42  06:14:17 -10.27  -6.31    -4.26-226.175293             -0.0000
iter:  43  06:14:41 -10.46  -6.44    -4.38-226.175293             -0.0000
iter:  44  06:15:06 -10.80  -6.48    -4.63-226.175293             -0.0000
iter:  45  06:15:30 -11.70  -6.73    -4.95-226.175293             -0.0000
iter:  46  06:15:54 -11.67  -6.76    -4.37-226.175293             -0.0000
iter:  47  06:16:19 -12.69  -6.89    -5.34-226.175293             -0.0000
iter:  48  06:16:43 -11.87  -6.94    -4.79-226.175293             -0.0000
iter:  49  06:17:07 -11.91  -7.04    -5.14-226.175293             -0.0000
iter:  50  06:17:32 -13.08  -7.69    -5.91-226.175293             -0.0000
iter:  51  06:17:56 -13.40  -7.76    -5.68-226.175293             -0.0000
iter:  52  06:18:20 -13.83  -7.84    -5.65-226.175293             -0.0000
iter:  53  06:18:45 -14.95  -7.97    -6.13-226.175293             -0.0000

Converged after 53 iterations.

Dipole moment: (18.309061, -2.307536, -4.524107) |e|*Ang

Total magnetic moment: (0.000000, 0.000000, -0.000000)
Local magnetic moments:
   0 O  ( 0.000000,  0.000000, -0.001833)
   1 O  ( 0.000000,  0.000000,  0.001806)
   2 O  ( 0.000000,  0.000000,  0.001808)
   3 O  ( 0.000000,  0.000000, -0.001812)
   4 O  ( 0.000000,  0.000000,  0.001779)
   5 O  ( 0.000000,  0.000000, -0.001806)
   6 O  ( 0.000000,  0.000000, -0.001816)
   7 O  ( 0.000000,  0.000000,  0.001811)
   8 O  ( 0.000000,  0.000000,  0.031057)
   9 O  ( 0.000000,  0.000000, -0.031051)
  10 O  ( 0.000000,  0.000000, -0.031136)
  11 O  ( 0.000000,  0.000000,  0.031142)
  12 Mn ( 0.000000,  0.000000,  4.395834)
  13 Mn ( 0.000000,  0.000000, -4.395837)
  14 Mn ( 0.000000,  0.000000, -4.395665)
  15 Mn ( 0.000000,  0.000000,  4.395696)
  16 P  ( 0.000000,  0.000000,  0.000852)
  17 P  ( 0.000000,  0.000000, -0.000857)
  18 P  ( 0.000000,  0.000000, -0.000885)
  19 P  ( 0.000000,  0.000000,  0.000878)
  20 O  ( 0.000000,  0.000000,  0.028407)
  21 O  ( 0.000000,  0.000000, -0.028407)
  22 O  ( 0.000000,  0.000000, -0.028432)
  23 O  ( 0.000000,  0.000000,  0.028428)
  24 Li ( 0.000000,  0.000000,  0.000000)
  25 Li ( 0.000000,  0.000000,  0.000027)
  26 Li ( 0.000000,  0.000000,  0.000000)
  27 Li ( 0.000000,  0.000000, -0.000001)

Energy contributions relative to reference atoms: (reference = -196157.275402)

Kinetic:       +277.624688
Potential:     -240.967097
External:        +0.000000
XC:            -264.721320
Entropy (-ST):   -0.000000
Local:           +1.888436
Free energy:   -226.175293
Extrapolated:  -226.175293

Spin contamination: 9.455313 electrons
Showing only first 2 kpts
                      Up                     Down
 Kpt  Band  Eigenvalues  Occupancy  Eigenvalues  Occupancy
  0    88      6.52996    0.00694      6.53037    0.00694
  0    89      6.56471    0.00694      6.56413    0.00694
  0    90      8.42552    0.00000      8.42655    0.00000
  0    91      8.44969    0.00000      8.44841    0.00000

  1    88      6.56817    0.00694      6.56889    0.00694
  1    89      6.59687    0.00694      6.59603    0.00694
  1    90      8.38198    0.00000      8.38280    0.00000
  1    91      8.40638    0.00000      8.40544    0.00000

Fermi level: 7.57250

Gap: 1.699 eV
Transition (v -> c):
  (s=0, k=94, n=89, [0.08, 0.42, 0.12]) -> (s=1, k=58, n=90, [-0.08, -0.08, 0.12])