User:   madkru@i008.nifl.fysik.dtu.dk
Date:   Wed Mar 24 15:18:25 2021
Arch:   x86_64
Pid:    26969
Python: 3.7.4
gpaw:   /home/niflheim/madkru/venv_folder/gpaw/gpaw (d224efde0f)
_gpaw:  /home/niflheim/madkru/venv_folder/gpaw/build/lib.linux-x86_64-ivybridge-3.7/
        _gpaw.cpython-37m-x86_64-linux-gnu.so (4fd39e8b1e)
ase:    /home/niflheim/madkru/venv_folder/ase/ase (version 3.21.0b1-4d5a73cb29)
numpy:  /home/niflheim/madkru/venv_folder/lib/python3.7/site-packages/numpy (version 1.19.4)
scipy:  /home/niflheim/madkru/venv_folder/lib/python3.7/site-packages/scipy (version 1.5.4)
units:  Angstrom and eV
cores: 64
OMP_NUM_THREADS: 1

Input parameters:
  convergence: {bands: occupied,
                density: 0.0001,
                eigenstates: 4e-08,
                energy: 0.0005,
                forces: 1e-06}
  kpts: [6 6 4]
  mode: {ecut: 600.0,
         gammacentered: False,
         name: pw}
  occupations: {fixmagmom: False,
                name: fermi-dirac,
                width: 0.001}
  symmetry: {point_group: False,
             time_reversal: False}

System changes: positions, numbers, cell, pbc, initial_charges, initial_magmoms

Initialize ...

O-setup:
  name: Oxygen
  id: 9b9d51c344dea68c822856295a461509
  Z: 8.0
  valence: 6
  core: 2
  charge: 0.0
  file: /home/modules/software/GPAW-setups/0.9.20000/O.LDA.gz
  compensation charges: gauss, rc=0.21, lmax=2
  cutoffs: 1.17(filt), 0.83(core),
  valence states:
                energy  radius
    2s(2.00)   -23.752   0.688
    2p(4.00)    -9.195   0.598
    *s           3.459   0.688
    *p          18.016   0.598
    *d           0.000   0.619

  Using partial waves for O as LCAO basis

Mn-setup:
  name: Manganese
  id: 0d715a8018be061a6e9ea6f2d364ac92
  Z: 25.0
  valence: 15
  core: 10
  charge: 0.0
  file: /home/modules/software/GPAW-setups/0.9.20000/Mn.LDA.gz
  compensation charges: gauss, rc=0.38, lmax=2
  cutoffs: 2.14(filt), 0.86(core),
  valence states:
                energy  radius
    3s(2.00)   -85.387   1.275
    4s(2.00)    -5.282   1.275
    3p(6.00)   -54.493   1.281
    4p(0.00)    -1.471   1.281
    3d(5.00)    -7.009   1.138
    *d          20.203   1.138

[...]

P-setup:
  name: Phosphorus
  id: a5561c299094968922a179ab894d2e2d
  Z: 15.0
  valence: 5
  core: 10
  charge: 0.0
  file: /home/modules/software/GPAW-setups/0.9.20000/P.LDA.gz
  compensation charges: gauss, rc=0.30, lmax=2
  cutoffs: 1.69(filt), 1.81(core),
  valence states:
                energy  radius
    3s(2.00)   -14.015   0.953
    3p(3.00)    -5.596   0.953
    *s          13.197   0.953
    *p          21.615   0.953
    *d           0.000   0.953

[...]

Li-setup:
  name: Lithium
  id: b73562207f97a71b6967473b66fe8b65
  Z: 3.0
  valence: 1
  core: 2
  charge: 0.0
  file: /home/modules/software/GPAW-setups/0.9.20000/Li.LDA.gz
  compensation charges: gauss, rc=0.33, lmax=2
  cutoffs: 1.91(filt), 2.55(core),
  valence states:
                energy  radius
    2s(1.00)    -2.874   1.058
    2p(0.00)    -1.126   1.058
    *s          24.338   1.058

  Using partial waves for Li as LCAO basis

Reference energy: -196157.275402

Spin-polarized calculation.
Magnetic moment: 0.000000

Convergence criteria:
  Maximum total energy change: 0.0005 eV / electron
  Maximum integral of absolute density change: 0.0001 electrons
  Maximum integral of absolute eigenstate change: 4e-08 eV^2
  Maximum change in atomic force: 1e-06 eV / Ang
  Maximum number of iterations: 333

Symmetries present (total): 1

  ( 1  0  0)
  ( 0  1  0)
  ( 0  0  1)

144 k-points: 6 x 6 x 4 Monkhorst-Pack grid
144 k-points in the irreducible part of the Brillouin zone
       k-points in crystal coordinates                weights
   0:    -0.41666667   -0.41666667   -0.37500000          1/144
   1:    -0.41666667   -0.41666667   -0.12500000          1/144
   2:    -0.41666667   -0.41666667    0.12500000          1/144
   3:    -0.41666667   -0.41666667    0.37500000          1/144
   4:    -0.41666667   -0.25000000   -0.37500000          1/144
   5:    -0.41666667   -0.25000000   -0.12500000          1/144
   6:    -0.41666667   -0.25000000    0.12500000          1/144
   7:    -0.41666667   -0.25000000    0.37500000          1/144
   8:    -0.41666667   -0.08333333   -0.37500000          1/144
   9:    -0.41666667   -0.08333333   -0.12500000          1/144
          ...
 143:     0.41666667    0.41666667    0.37500000          1/144

Wave functions: Plane wave expansion
  Cutoff energy: 600.000 eV
  Number of coefficients (min, max): 9132, 9161
  Pulay-stress correction: 0.000000 eV/Ang^3 (de/decut=0.000000)
  Using FFTW library
  ScaLapack parameters: grid=1x1, blocksize=None
  Wavefunction extrapolation:
    Improved wavefunction reuse through dual PAW basis

  Fermi-Dirac: width=0.0010 eV

Eigensolver
   Davidson(niter=2, smin=None, normalize=True)

Densities:
  Coarse grid: 60*35*27 grid
  Fine grid: 120*70*54 grid
  Total Charge: 0.000000

Density mixing:
  Method: difference
  Backend: pulay
  Linear mixing parameter: 0.05
  Mixing with 5 old densities
  Damping of long wave oscillations: 50

Hamiltonian:
  XC and Coulomb potentials evaluated on a 120*70*54 grid
  Using the LDA Exchange-Correlation functional

Total number of cores used: 64
Parallelization over k-points: 16
Domain decomposition: 2 x 2 x 1

Number of atoms: 28
Number of atomic orbitals: 148
Number of bands in calculation: 112
Number of valence electrons: 180
Bands to converge: occupied

... initialized

Initializing position-dependent things.

Density initialized from atomic densities
Creating initial wave functions:
  112 bands from LCAO basis set

               O     O  P  O
            PO           OMn     O
                  O          MO
            O        Li O
             Mn  Mn          OP
         O       O Li O
         Li     O P         O
       Li

Positions:
   0 O     -1.280122   -2.495595   -1.112331    ( 0.0000,  0.0000,  0.0000)
   1 O     -3.023238    2.918858    1.191723    ( 0.0000,  0.0000,  0.0000)
   2 O      1.997451    0.467212    1.441442    ( 0.0000,  0.0000,  0.0000)
   3 O      3.740343   -0.043905   -0.862614    ( 0.0000,  0.0000,  0.0000)
   4 O      1.997419    2.918835    1.441465    ( 0.0000,  0.0000,  0.0000)
   5 O      3.740372   -2.495531   -0.862587    ( 0.0000,  0.0000,  0.0000)
   6 O     -1.280154   -0.043891   -1.112309    ( 0.0000,  0.0000,  0.0000)
   7 O     -3.023210    0.467136    1.191750    ( 0.0000,  0.0000,  0.0000)
   8 O     -4.147405   -1.269737   -0.856207    ( 0.0000,  0.0000,  0.0000)
   9 O     -0.155894    1.692986    1.447725    ( 0.0000,  0.0000,  0.0000)
  10 O      4.864578    1.693016    1.185324    ( 0.0000,  0.0000,  0.0000)
  11 O      0.873163   -1.269706   -1.118625    ( 0.0000,  0.0000,  0.0000)
  12 Mn    -2.437108   -1.259902    0.302197    ( 0.0000,  0.0000,  1.0000)
  13 Mn    -1.866187    1.693156   -2.001927    ( 0.0000,  0.0000, -1.0000)
  14 Mn     3.154299    1.693181    0.026917    ( 0.0000,  0.0000, -1.0000)
  15 Mn     2.583444   -1.269877    2.331074    ( 0.0000,  0.0000,  1.0000)
  16 P     -0.543052   -1.269720   -1.734187    ( 0.0000,  0.0000,  0.0000)
  17 P     -3.760282    1.692974    0.569859    ( 0.0000,  0.0000,  0.0000)
  18 P      1.260300    1.693000    2.063344    ( 0.0000,  0.0000,  0.0000)
  19 P      4.477470   -1.269695   -0.240696    ( 0.0000,  0.0000,  0.0000)
  20 O     -0.544413   -1.269738    1.348523    ( 0.0000,  0.0000,  0.0000)
  21 O     -3.758895    1.692992   -0.955558    ( 0.0000,  0.0000,  0.0000)
  22 O      1.261690    1.693018   -1.019367    ( 0.0000,  0.0000,  0.0000)
  23 O      4.476045   -1.269713    1.284716    ( 0.0000,  0.0000,  0.0000)
  24 Li    -4.662027   -2.751322   -2.139440    ( 0.0000,  0.0000,  0.0000)
  25 Li     0.358703   -2.751277    0.164614    ( 0.0000,  0.0000,  0.0000)
  26 Li    -4.662011    0.211617   -2.139439    ( 0.0000,  0.0000,  0.0000)
  27 Li     0.358720    0.211628    0.164615    ( 0.0000,  0.0000,  0.0000)

Unit cell:
           periodic     x           y           z      points  spacing
  1. axis:    yes   10.041096    0.000054   -0.000022    60     0.1674
  2. axis:    yes    0.000032    5.925857    0.000001    35     0.1693
  3. axis:    yes   -0.000010    0.000001    4.608134    27     0.1707

  Lengths:  10.041096   5.925857   4.608134
  Angles:   89.999974  90.000250  89.999381

Effective grid spacing dv^(1/3) = 0.1691

                     log10-error:           total        iterations:
           time      wfs    density  force  energy       poisson  magmom
iter:   1  15:19:58                       -233.730043             +0.0000
iter:   2  15:20:18  -0.47  -0.95         -231.549886             +0.0011
iter:   3  15:20:38  -0.61  -1.00         -220.801287             +0.0011
iter:   4  15:20:57  -1.19  -1.31         -220.861214             +0.3171
iter:   5  15:21:17  -2.11  -1.40         -222.923003             +0.1710
iter:   6  15:21:37  -2.12  -1.38         -223.977603             +0.3673
iter:   7  15:21:57  -2.12  -1.50         -223.857935             -0.2695
iter:   8  15:22:16  -2.51  -1.62         -225.247313             -0.7696
iter:   9  15:22:36  -2.68  -1.88         -226.183707             -0.1939
iter:  10  15:22:56  -2.15  -1.97         -226.333345             +0.0941
iter:  11  15:23:15  -2.33  -2.13         -226.319607             +0.0213
iter:  12  15:23:35  -2.93  -2.28         -226.266891             +0.0340
iter:  13  15:23:55  -2.86  -2.48         -226.190671             +0.0036
iter:  14  15:24:14  -3.39  -2.77         -226.176911             +0.0043
iter:  15  15:24:34  -3.65  -3.02         -226.180866             +0.0013
iter:  16  15:24:54  -4.14  -3.24         -226.175255             +0.0007
iter:  17  15:25:13  -4.57  -3.35         -226.175691             +0.0003
iter:  18  15:25:33  -4.42  -3.43         -226.175705             +0.0002
iter:  19  15:25:53  -5.47  -3.50         -226.175234             +0.0001
iter:  20  15:26:12  -5.50  -3.83         -226.174937             +0.0000
iter:  21  15:26:32  -6.48  -3.99         -226.174938             +0.0000
iter:  22  15:26:52  -6.20  -4.04         -226.175021             -0.0000
iter:  23  15:27:11  -6.02  -4.24         -226.174914             -0.0000
iter:  24  15:27:31  -6.45  -4.35         -226.174895             -0.0000
iter:  25  15:27:51  -6.97  -4.42         -226.174898             -0.0000
iter:  26  15:28:10  -7.13  -4.45         -226.174895             +0.0000
iter:  27  15:28:35  -7.58  -4.49         -226.174895             +0.0000
iter:  28  15:28:59  -7.75  -4.52    -2.58-226.174894             +0.0000
iter:  29  15:29:19  -6.77  -4.55         -226.174901             +0.0000
iter:  30  15:29:38  -7.16  -4.73         -226.174895             +0.0000
iter:  31  15:30:02  -8.32  -4.90    -2.56-226.174895             +0.0000
iter:  32  15:30:27  -8.39  -5.08    -3.29-226.174895             +0.0000
iter:  33  15:30:51  -7.60  -5.18    -2.85-226.174894             +0.0000
iter:  34  15:31:16  -8.76  -5.69    -3.35-226.174894             +0.0000
iter:  35  15:31:40  -9.49  -5.91    -3.84-226.174894             -0.0000
iter:  36  15:32:04  -9.93  -5.98    -3.44-226.174894             -0.0000
iter:  37  15:32:29 -10.00  -6.14    -4.00-226.174894             -0.0000
iter:  38  15:32:53 -10.47  -6.51    -4.27-226.174894             -0.0000
iter:  39  15:33:17 -10.70  -6.60    -4.13-226.174894             -0.0000
iter:  40  15:33:41 -11.10  -6.65    -4.43-226.174894             -0.0000
iter:  41  15:34:06 -12.18  -6.93    -5.48-226.174894             -0.0000
iter:  42  15:34:30 -11.83  -6.96    -4.64-226.174894             -0.0000
iter:  43  15:34:55 -12.12  -7.10    -4.83-226.174894             -0.0000
iter:  44  15:35:19 -13.22  -7.34    -5.55-226.174894             -0.0000
iter:  45  15:35:43 -12.52  -7.41    -5.07-226.174894             -0.0000
iter:  46  15:36:08 -12.45  -7.51    -5.07-226.174894             -0.0000
iter:  47  15:36:32 -13.52  -7.61    -5.52-226.174894             -0.0000
iter:  48  15:36:56 -12.97  -7.73    -5.46-226.174894             -0.0000
iter:  49  15:37:21 -13.64  -7.76    -5.44-226.174894             -0.0000
iter:  50  15:37:45 -14.23  -8.12    -6.01-226.174894             -0.0000

Converged after 50 iterations.

Dipole moment: (18.327104, -2.281053, -4.524296) |e|*Ang

Total magnetic moment: (0.000000, 0.000000, -0.000000)
Local magnetic moments:
   0 O  ( 0.000000,  0.000000, -0.002234)
   1 O  ( 0.000000,  0.000000,  0.001284)
   2 O  ( 0.000000,  0.000000,  0.001808)
   3 O  ( 0.000000,  0.000000, -0.001824)
   4 O  ( 0.000000,  0.000000,  0.001807)
   5 O  ( 0.000000,  0.000000, -0.001789)
   6 O  ( 0.000000,  0.000000, -0.001390)
   7 O  ( 0.000000,  0.000000,  0.002346)
   8 O  ( 0.000000,  0.000000,  0.031100)
   9 O  ( 0.000000,  0.000000, -0.031097)
  10 O  ( 0.000000,  0.000000, -0.031095)
  11 O  ( 0.000000,  0.000000,  0.031096)
  12 Mn ( 0.000000,  0.000000,  4.395702)
  13 Mn ( 0.000000,  0.000000, -4.395772)
  14 Mn ( 0.000000,  0.000000, -4.395736)
  15 Mn ( 0.000000,  0.000000,  4.395753)
  16 P  ( 0.000000,  0.000000,  0.000867)
  17 P  ( 0.000000,  0.000000, -0.000860)
  18 P  ( 0.000000,  0.000000, -0.000871)
  19 P  ( 0.000000,  0.000000,  0.000870)
  20 O  ( 0.000000,  0.000000,  0.028420)
  21 O  ( 0.000000,  0.000000, -0.028415)
  22 O  ( 0.000000,  0.000000, -0.028420)
  23 O  ( 0.000000,  0.000000,  0.028419)
  24 Li ( 0.000000,  0.000000, -0.000005)
  25 Li ( 0.000000,  0.000000,  0.000007)
  26 Li ( 0.000000,  0.000000,  0.000006)
  27 Li ( 0.000000,  0.000000, -0.000007)

Energy contributions relative to reference atoms: (reference = -196157.275402)

Kinetic:       +277.628432
Potential:     -240.970166
External:        +0.000000
XC:            -264.721568
Entropy (-ST):   -0.000000
Local:           +1.888408
Free energy:   -226.174894
Extrapolated:  -226.174894

Spin contamination: 9.455302 electrons
Showing only first 2 kpts
                      Up                     Down
 Kpt  Band  Eigenvalues  Occupancy  Eigenvalues  Occupancy
  0    88      6.53053    0.00694      6.53040    0.00694
  0    89      6.56450    0.00694      6.56418    0.00694
  0    90      8.42670    0.00000      8.42681    0.00000
  0    91      8.44824    0.00000      8.44831    0.00000

  1    88      6.56930    0.00694      6.56886    0.00694
  1    89      6.59622    0.00694      6.59609    0.00694
  1    90      8.38304    0.00000      8.38311    0.00000
  1    91      8.40512    0.00000      8.40524    0.00000

Fermi level: 7.74412

Gap: 1.699 eV
Transition (v -> c):
  (s=0, k=73, n=89, [0.08, -0.42, -0.12]) -> (s=0, k=62, n=90, [-0.08, 0.08, 0.12])
Writing to born-0.01-12y+.gpw (mode='all')