User:   madkru@i008.nifl.fysik.dtu.dk
Date:   Wed Mar 24 07:38:29 2021
Arch:   x86_64
Pid:    26969
Python: 3.7.4
gpaw:   /home/niflheim/madkru/venv_folder/gpaw/gpaw (d0d1ca1c71)
_gpaw:  /home/niflheim/madkru/venv_folder/gpaw/build/lib.linux-x86_64-ivybridge-3.7/
        _gpaw.cpython-37m-x86_64-linux-gnu.so (4fd39e8b1e)
ase:    /home/niflheim/madkru/venv_folder/ase/ase (version 3.21.0b1-7e6c206a91)
numpy:  /home/niflheim/madkru/venv_folder/lib/python3.7/site-packages/numpy (version 1.19.4)
scipy:  /home/niflheim/madkru/venv_folder/lib/python3.7/site-packages/scipy (version 1.5.4)
units:  Angstrom and eV
cores: 64
OMP_NUM_THREADS: 1

Input parameters:
  convergence: {bands: occupied,
                density: 0.0001,
                eigenstates: 4e-08,
                energy: 0.0005,
                forces: 1e-06}
  kpts: [6 6 4]
  mode: {ecut: 600.0,
         gammacentered: False,
         name: pw}
  occupations: {fixmagmom: False,
                name: fermi-dirac,
                width: 0.001}
  symmetry: {point_group: False,
             time_reversal: False}

System changes: positions, numbers, cell, pbc, initial_charges, initial_magmoms

Initialize ...

O-setup:
  name: Oxygen
  id: 9b9d51c344dea68c822856295a461509
  Z: 8.0
  valence: 6
  core: 2
  charge: 0.0
  file: /home/modules/software/GPAW-setups/0.9.20000/O.LDA.gz
  compensation charges: gauss, rc=0.21, lmax=2
  cutoffs: 1.17(filt), 0.83(core),
  valence states:
                energy  radius
    2s(2.00)   -23.752   0.688
    2p(4.00)    -9.195   0.598
    *s           3.459   0.688
    *p          18.016   0.598
    *d           0.000   0.619

  Using partial waves for O as LCAO basis

Mn-setup:
  name: Manganese
  id: 0d715a8018be061a6e9ea6f2d364ac92
  Z: 25.0
  valence: 15
  core: 10
  charge: 0.0
  file: /home/modules/software/GPAW-setups/0.9.20000/Mn.LDA.gz
  compensation charges: gauss, rc=0.38, lmax=2
  cutoffs: 2.14(filt), 0.86(core),
  valence states:
                energy  radius
    3s(2.00)   -85.387   1.275
    4s(2.00)    -5.282   1.275
    3p(6.00)   -54.493   1.281
    4p(0.00)    -1.471   1.281
    3d(5.00)    -7.009   1.138
    *d          20.203   1.138

[...]

P-setup:
  name: Phosphorus
  id: a5561c299094968922a179ab894d2e2d
  Z: 15.0
  valence: 5
  core: 10
  charge: 0.0
  file: /home/modules/software/GPAW-setups/0.9.20000/P.LDA.gz
  compensation charges: gauss, rc=0.30, lmax=2
  cutoffs: 1.69(filt), 1.81(core),
  valence states:
                energy  radius
    3s(2.00)   -14.015   0.953
    3p(3.00)    -5.596   0.953
    *s          13.197   0.953
    *p          21.615   0.953
    *d           0.000   0.953

[...]

Li-setup:
  name: Lithium
  id: b73562207f97a71b6967473b66fe8b65
  Z: 3.0
  valence: 1
  core: 2
  charge: 0.0
  file: /home/modules/software/GPAW-setups/0.9.20000/Li.LDA.gz
  compensation charges: gauss, rc=0.33, lmax=2
  cutoffs: 1.91(filt), 2.55(core),
  valence states:
                energy  radius
    2s(1.00)    -2.874   1.058
    2p(0.00)    -1.126   1.058
    *s          24.338   1.058

  Using partial waves for Li as LCAO basis

Reference energy: -196157.275402

Spin-polarized calculation.
Magnetic moment: 0.000000

Convergence criteria:
  Maximum total energy change: 0.0005 eV / electron
  Maximum integral of absolute density change: 0.0001 electrons
  Maximum integral of absolute eigenstate change: 4e-08 eV^2
  Maximum change in atomic force: 1e-06 eV / Ang
  Maximum number of iterations: 333

Symmetries present (total): 1

  ( 1  0  0)
  ( 0  1  0)
  ( 0  0  1)

144 k-points: 6 x 6 x 4 Monkhorst-Pack grid
144 k-points in the irreducible part of the Brillouin zone
       k-points in crystal coordinates                weights
   0:    -0.41666667   -0.41666667   -0.37500000          1/144
   1:    -0.41666667   -0.41666667   -0.12500000          1/144
   2:    -0.41666667   -0.41666667    0.12500000          1/144
   3:    -0.41666667   -0.41666667    0.37500000          1/144
   4:    -0.41666667   -0.25000000   -0.37500000          1/144
   5:    -0.41666667   -0.25000000   -0.12500000          1/144
   6:    -0.41666667   -0.25000000    0.12500000          1/144
   7:    -0.41666667   -0.25000000    0.37500000          1/144
   8:    -0.41666667   -0.08333333   -0.37500000          1/144
   9:    -0.41666667   -0.08333333   -0.12500000          1/144
          ...
 143:     0.41666667    0.41666667    0.37500000          1/144

Wave functions: Plane wave expansion
  Cutoff energy: 600.000 eV
  Number of coefficients (min, max): 9132, 9161
  Pulay-stress correction: 0.000000 eV/Ang^3 (de/decut=0.000000)
  Using FFTW library
  ScaLapack parameters: grid=1x1, blocksize=None
  Wavefunction extrapolation:
    Improved wavefunction reuse through dual PAW basis

  Fermi-Dirac: width=0.0010 eV

Eigensolver
   Davidson(niter=2, smin=None, normalize=True)

Densities:
  Coarse grid: 60*35*27 grid
  Fine grid: 120*70*54 grid
  Total Charge: 0.000000

Density mixing:
  Method: difference
  Backend: pulay
  Linear mixing parameter: 0.05
  Mixing with 5 old densities
  Damping of long wave oscillations: 50

Hamiltonian:
  XC and Coulomb potentials evaluated on a 120*70*54 grid
  Using the LDA Exchange-Correlation functional

Total number of cores used: 64
Parallelization over k-points: 16
Domain decomposition: 2 x 2 x 1

Number of atoms: 28
Number of atomic orbitals: 148
Number of bands in calculation: 112
Number of valence electrons: 180
Bands to converge: occupied

... initialized

Initializing position-dependent things.

Density initialized from atomic densities
Creating initial wave functions:
  112 bands from LCAO basis set

               O     O  P  O
            PO           OMn     O
                  O          MO
            O        Li O
             Mn  Mn          OP
         O       O Li O
         Li     O P         O
       Li

Positions:
   0 O     -1.280122   -2.495595   -1.112331    ( 0.0000,  0.0000,  0.0000)
   1 O     -3.023238    2.918858    1.191723    ( 0.0000,  0.0000,  0.0000)
   2 O      1.997451    0.467212    1.441442    ( 0.0000,  0.0000,  0.0000)
   3 O      3.740343   -0.043905   -0.862614    ( 0.0000,  0.0000,  0.0000)
   4 O      1.997419    2.918835    1.441465    ( 0.0000,  0.0000,  0.0000)
   5 O      3.740372   -2.495531   -0.862587    ( 0.0000,  0.0000,  0.0000)
   6 O     -1.280154   -0.043891   -1.112309    ( 0.0000,  0.0000,  0.0000)
   7 O     -3.023210    0.467136    1.191750    ( 0.0000,  0.0000,  0.0000)
   8 O     -4.147405   -1.269737   -0.856207    ( 0.0000,  0.0000,  0.0000)
   9 O     -0.155894    1.692986    1.447725    ( 0.0000,  0.0000,  0.0000)
  10 O      4.854578    1.693016    1.185324    ( 0.0000,  0.0000,  0.0000)
  11 O      0.873163   -1.269706   -1.118625    ( 0.0000,  0.0000,  0.0000)
  12 Mn    -2.437108   -1.269902    0.302197    ( 0.0000,  0.0000,  1.0000)
  13 Mn    -1.866187    1.693156   -2.001927    ( 0.0000,  0.0000, -1.0000)
  14 Mn     3.154299    1.693181    0.026917    ( 0.0000,  0.0000, -1.0000)
  15 Mn     2.583444   -1.269877    2.331074    ( 0.0000,  0.0000,  1.0000)
  16 P     -0.543052   -1.269720   -1.734187    ( 0.0000,  0.0000,  0.0000)
  17 P     -3.760282    1.692974    0.569859    ( 0.0000,  0.0000,  0.0000)
  18 P      1.260300    1.693000    2.063344    ( 0.0000,  0.0000,  0.0000)
  19 P      4.477470   -1.269695   -0.240696    ( 0.0000,  0.0000,  0.0000)
  20 O     -0.544413   -1.269738    1.348523    ( 0.0000,  0.0000,  0.0000)
  21 O     -3.758895    1.692992   -0.955558    ( 0.0000,  0.0000,  0.0000)
  22 O      1.261690    1.693018   -1.019367    ( 0.0000,  0.0000,  0.0000)
  23 O      4.476045   -1.269713    1.284716    ( 0.0000,  0.0000,  0.0000)
  24 Li    -4.662027   -2.751322   -2.139440    ( 0.0000,  0.0000,  0.0000)
  25 Li     0.358703   -2.751277    0.164614    ( 0.0000,  0.0000,  0.0000)
  26 Li    -4.662011    0.211617   -2.139439    ( 0.0000,  0.0000,  0.0000)
  27 Li     0.358720    0.211628    0.164615    ( 0.0000,  0.0000,  0.0000)

Unit cell:
           periodic     x           y           z      points  spacing
  1. axis:    yes   10.041096    0.000054   -0.000022    60     0.1674
  2. axis:    yes    0.000032    5.925857    0.000001    35     0.1693
  3. axis:    yes   -0.000010    0.000001    4.608134    27     0.1707

  Lengths:  10.041096   5.925857   4.608134
  Angles:   89.999974  90.000250  89.999381

Effective grid spacing dv^(1/3) = 0.1691

                     log10-error:           total        iterations:
           time      wfs    density  force  energy       poisson  magmom
iter:   1  07:39:59                       -233.728455             +0.0000
iter:   2  07:40:18  -0.47  -0.95         -231.548780             +0.0004
iter:   3  07:40:38  -0.61  -1.00         -220.821190             +0.0004
iter:   4  07:40:58  -1.18  -1.31         -221.149824             +0.3164
iter:   5  07:41:17  -2.03  -1.39         -222.522073             +0.1776
iter:   6  07:41:37  -2.11  -1.38         -224.578974             +0.3921
iter:   7  07:41:57  -2.07  -1.48         -224.275871             +0.8699
iter:   8  07:42:16  -2.39  -1.60         -225.334939             +1.1145
iter:   9  07:42:36  -2.58  -1.90         -226.332851             +0.3638
iter:  10  07:42:56  -2.26  -2.03         -226.334018             -0.0205
iter:  11  07:43:15  -2.63  -2.14         -226.288806             +0.0075
iter:  12  07:43:35  -2.42  -2.21         -226.246368             -0.0047
iter:  13  07:43:55  -3.65  -2.75         -226.206758             +0.0011
iter:  14  07:44:14  -3.36  -2.82         -226.180651             +0.0024
iter:  15  07:44:34  -3.62  -2.91         -226.175137             +0.0007
iter:  16  07:44:53  -4.58  -3.05         -226.174725             +0.0011
iter:  17  07:45:13  -4.93  -3.07         -226.174224             -0.0000
iter:  18  07:45:33  -4.91  -3.14         -226.174052             +0.0000
iter:  19  07:45:52  -5.07  -3.30         -226.173562             +0.0000
iter:  20  07:46:12  -5.45  -3.36         -226.173503             +0.0000
iter:  21  07:46:32  -4.94  -3.42         -226.174185             +0.0000
iter:  22  07:46:51  -5.93  -3.55         -226.173806             +0.0000
iter:  23  07:47:11  -5.44  -3.63         -226.173479             +0.0000
iter:  24  07:47:31  -6.35  -3.72         -226.173496             +0.0000
iter:  25  07:47:50  -5.99  -3.83         -226.173472             +0.0000
iter:  26  07:48:10  -6.62  -3.84         -226.173482             +0.0000
iter:  27  07:48:29  -5.79  -3.86         -226.173514             -0.0000
iter:  28  07:48:49  -7.03  -4.00         -226.173472             +0.0000
iter:  29  07:49:09  -5.63  -4.04         -226.173429             +0.0000
iter:  30  07:49:28  -6.90  -4.27         -226.173416             +0.0000
iter:  31  07:49:48  -6.27  -4.34         -226.173415             -0.0000
iter:  32  07:50:08  -7.28  -4.60         -226.173407             -0.0000
iter:  33  07:50:32  -7.98  -4.75         -226.173406             -0.0000
iter:  34  07:50:56  -8.15  -4.81    -2.97-226.173406             -0.0000
iter:  35  07:51:16  -7.17  -4.93         -226.173406             -0.0000
iter:  36  07:51:40  -8.16  -5.21    -2.60-226.173405             -0.0000
iter:  37  07:52:04  -8.17  -5.41    -3.09-226.173405             -0.0000
iter:  38  07:52:29  -9.07  -5.52    -3.39-226.173405             -0.0000
iter:  39  07:52:53  -9.57  -5.68    -3.95-226.173405             -0.0000
iter:  40  07:53:17  -9.50  -5.78    -3.49-226.173405             -0.0000
iter:  41  07:53:42 -10.04  -6.04    -3.97-226.173405             -0.0000
iter:  42  07:54:06 -10.29  -6.10    -4.04-226.173405             -0.0000
iter:  43  07:54:30 -10.81  -6.18    -4.17-226.173405             -0.0000
iter:  44  07:54:55 -10.72  -6.34    -4.21-226.173405             -0.0000
iter:  45  07:55:19 -11.87  -6.38    -5.13-226.173405             +0.0000
iter:  46  07:55:43 -10.47  -6.40    -4.12-226.173405             +0.0000
iter:  47  07:56:08 -11.54  -6.74    -4.64-226.173405             +0.0000
iter:  48  07:56:32 -11.81  -6.84    -4.95-226.173405             +0.0000
iter:  49  07:56:56 -11.78  -6.91    -4.63-226.173405             +0.0000
iter:  50  07:57:20 -12.19  -7.23    -5.32-226.173405             +0.0000
iter:  51  07:57:45 -12.86  -7.31    -5.35-226.173405             +0.0000
iter:  52  07:58:09 -12.50  -7.32    -5.14-226.173405             +0.0000
iter:  53  07:58:33 -13.35  -7.67    -5.35-226.173405             +0.0000
iter:  54  07:58:58 -13.06  -7.69    -5.37-226.173405             +0.0000
iter:  55  07:59:22 -13.99  -7.99    -5.99-226.173405             +0.0000
iter:  56  07:59:46 -14.18  -8.16    -6.01-226.173405             +0.0000

Converged after 56 iterations.

Dipole moment: (18.334691, -2.306760, -4.526029) |e|*Ang

Total magnetic moment: (0.000000, 0.000000, 0.000000)
Local magnetic moments:
   0 O  ( 0.000000,  0.000000, -0.001812)
   1 O  ( 0.000000,  0.000000,  0.001705)
   2 O  ( 0.000000,  0.000000,  0.001830)
   3 O  ( 0.000000,  0.000000, -0.001821)
   4 O  ( 0.000000,  0.000000,  0.001824)
   5 O  ( 0.000000,  0.000000, -0.001816)
   6 O  ( 0.000000,  0.000000, -0.001817)
   7 O  ( 0.000000,  0.000000,  0.001710)
   8 O  ( 0.000000,  0.000000,  0.031180)
   9 O  ( 0.000000,  0.000000, -0.031190)
  10 O  ( 0.000000,  0.000000, -0.031455)
  11 O  ( 0.000000,  0.000000,  0.031008)
  12 Mn ( 0.000000,  0.000000,  4.395748)
  13 Mn ( 0.000000,  0.000000, -4.395792)
  14 Mn ( 0.000000,  0.000000, -4.394384)
  15 Mn ( 0.000000,  0.000000,  4.395609)
  16 P  ( 0.000000,  0.000000,  0.000883)
  17 P  ( 0.000000,  0.000000, -0.001056)
  18 P  ( 0.000000,  0.000000, -0.000870)
  19 P  ( 0.000000,  0.000000,  0.000831)
  20 O  ( 0.000000,  0.000000,  0.028417)
  21 O  ( 0.000000,  0.000000, -0.028367)
  22 O  ( 0.000000,  0.000000, -0.028220)
  23 O  ( 0.000000,  0.000000,  0.028399)
  24 Li ( 0.000000,  0.000000, -0.000035)
  25 Li ( 0.000000,  0.000000,  0.000000)
  26 Li ( 0.000000,  0.000000, -0.000035)
  27 Li ( 0.000000,  0.000000,  0.000000)

Energy contributions relative to reference atoms: (reference = -196157.275402)

Kinetic:       +277.018558
Potential:     -240.495703
External:        +0.000000
XC:            -264.585713
Entropy (-ST):   -0.000000
Local:           +1.889453
Free energy:   -226.173405
Extrapolated:  -226.173405

Spin contamination: 9.455057 electrons
Showing only first 2 kpts
                      Up                     Down
 Kpt  Band  Eigenvalues  Occupancy  Eigenvalues  Occupancy
  0    88      6.52867    0.00694      6.53119    0.00694
  0    89      6.56537    0.00694      6.58522    0.00694
  0    90      8.42507    0.00000      8.42244    0.00000
  0    91      8.45614    0.00000      8.45221    0.00000

  1    88      6.56704    0.00694      6.56829    0.00694
  1    89      6.59734    0.00694      6.61953    0.00694
  1    90      8.38161    0.00000      8.37913    0.00000
  1    91      8.41434    0.00000      8.40879    0.00000

Fermi level: 7.75909

Gap: 1.681 eV
Transition (v -> c):
  (s=1, k=69, n=89, [-0.08, 0.42, -0.12]) -> (s=1, k=57, n=90, [-0.08, -0.08, -0.12])
Writing to born-0.01-10x-.gpw (mode='all')