User:   madkru@i008.nifl.fysik.dtu.dk
Date:   Fri Mar 26 02:26:09 2021
Arch:   x86_64
Pid:    26969
Python: 3.7.4
gpaw:   /home/niflheim/madkru/venv_folder/gpaw/gpaw (d224efde0f)
_gpaw:  /home/niflheim/madkru/venv_folder/gpaw/build/lib.linux-x86_64-ivybridge-3.7/
        _gpaw.cpython-37m-x86_64-linux-gnu.so (4fd39e8b1e)
ase:    /home/niflheim/madkru/venv_folder/ase/ase (version 3.21.0b1-4d5a73cb29)
numpy:  /home/niflheim/madkru/venv_folder/lib/python3.7/site-packages/numpy (version 1.19.4)
scipy:  /home/niflheim/madkru/venv_folder/lib/python3.7/site-packages/scipy (version 1.5.4)
units:  Angstrom and eV
cores: 64
OMP_NUM_THREADS: 1

Input parameters:
  convergence: {bands: occupied,
                density: 0.0001,
                eigenstates: 4e-08,
                energy: 0.0005,
                forces: 1e-06}
  kpts: [6 6 4]
  mode: {ecut: 600.0,
         gammacentered: False,
         name: pw}
  occupations: {fixmagmom: False,
                name: fermi-dirac,
                width: 0.001}
  symmetry: {point_group: False,
             time_reversal: False}

System changes: positions, numbers, cell, pbc, initial_charges, initial_magmoms

Initialize ...

O-setup:
  name: Oxygen
  id: 9b9d51c344dea68c822856295a461509
  Z: 8.0
  valence: 6
  core: 2
  charge: 0.0
  file: /home/modules/software/GPAW-setups/0.9.20000/O.LDA.gz
  compensation charges: gauss, rc=0.21, lmax=2
  cutoffs: 1.17(filt), 0.83(core),
  valence states:
                energy  radius
    2s(2.00)   -23.752   0.688
    2p(4.00)    -9.195   0.598
    *s           3.459   0.688
    *p          18.016   0.598
    *d           0.000   0.619

  Using partial waves for O as LCAO basis

Mn-setup:
  name: Manganese
  id: 0d715a8018be061a6e9ea6f2d364ac92
  Z: 25.0
  valence: 15
  core: 10
  charge: 0.0
  file: /home/modules/software/GPAW-setups/0.9.20000/Mn.LDA.gz
  compensation charges: gauss, rc=0.38, lmax=2
  cutoffs: 2.14(filt), 0.86(core),
  valence states:
                energy  radius
    3s(2.00)   -85.387   1.275
    4s(2.00)    -5.282   1.275
    3p(6.00)   -54.493   1.281
    4p(0.00)    -1.471   1.281
    3d(5.00)    -7.009   1.138
    *d          20.203   1.138

[...]

P-setup:
  name: Phosphorus
  id: a5561c299094968922a179ab894d2e2d
  Z: 15.0
  valence: 5
  core: 10
  charge: 0.0
  file: /home/modules/software/GPAW-setups/0.9.20000/P.LDA.gz
  compensation charges: gauss, rc=0.30, lmax=2
  cutoffs: 1.69(filt), 1.81(core),
  valence states:
                energy  radius
    3s(2.00)   -14.015   0.953
    3p(3.00)    -5.596   0.953
    *s          13.197   0.953
    *p          21.615   0.953
    *d           0.000   0.953

[...]

Li-setup:
  name: Lithium
  id: b73562207f97a71b6967473b66fe8b65
  Z: 3.0
  valence: 1
  core: 2
  charge: 0.0
  file: /home/modules/software/GPAW-setups/0.9.20000/Li.LDA.gz
  compensation charges: gauss, rc=0.33, lmax=2
  cutoffs: 1.91(filt), 2.55(core),
  valence states:
                energy  radius
    2s(1.00)    -2.874   1.058
    2p(0.00)    -1.126   1.058
    *s          24.338   1.058

  Using partial waves for Li as LCAO basis

Reference energy: -196157.275402

Spin-polarized calculation.
Magnetic moment: 0.000000

Convergence criteria:
  Maximum total energy change: 0.0005 eV / electron
  Maximum integral of absolute density change: 0.0001 electrons
  Maximum integral of absolute eigenstate change: 4e-08 eV^2
  Maximum change in atomic force: 1e-06 eV / Ang
  Maximum number of iterations: 333

Symmetries present (total): 1

  ( 1  0  0)
  ( 0  1  0)
  ( 0  0  1)

144 k-points: 6 x 6 x 4 Monkhorst-Pack grid
144 k-points in the irreducible part of the Brillouin zone
       k-points in crystal coordinates                weights
   0:    -0.41666667   -0.41666667   -0.37500000          1/144
   1:    -0.41666667   -0.41666667   -0.12500000          1/144
   2:    -0.41666667   -0.41666667    0.12500000          1/144
   3:    -0.41666667   -0.41666667    0.37500000          1/144
   4:    -0.41666667   -0.25000000   -0.37500000          1/144
   5:    -0.41666667   -0.25000000   -0.12500000          1/144
   6:    -0.41666667   -0.25000000    0.12500000          1/144
   7:    -0.41666667   -0.25000000    0.37500000          1/144
   8:    -0.41666667   -0.08333333   -0.37500000          1/144
   9:    -0.41666667   -0.08333333   -0.12500000          1/144
          ...
 143:     0.41666667    0.41666667    0.37500000          1/144

Wave functions: Plane wave expansion
  Cutoff energy: 600.000 eV
  Number of coefficients (min, max): 9132, 9161
  Pulay-stress correction: 0.000000 eV/Ang^3 (de/decut=0.000000)
  Using FFTW library
  ScaLapack parameters: grid=1x1, blocksize=None
  Wavefunction extrapolation:
    Improved wavefunction reuse through dual PAW basis

  Fermi-Dirac: width=0.0010 eV

Eigensolver
   Davidson(niter=2, smin=None, normalize=True)

Densities:
  Coarse grid: 60*35*27 grid
  Fine grid: 120*70*54 grid
  Total Charge: 0.000000

Density mixing:
  Method: difference
  Backend: pulay
  Linear mixing parameter: 0.05
  Mixing with 5 old densities
  Damping of long wave oscillations: 50

Hamiltonian:
  XC and Coulomb potentials evaluated on a 120*70*54 grid
  Using the LDA Exchange-Correlation functional

Total number of cores used: 64
Parallelization over k-points: 16
Domain decomposition: 2 x 2 x 1

Number of atoms: 28
Number of atomic orbitals: 148
Number of bands in calculation: 112
Number of valence electrons: 180
Bands to converge: occupied

... initialized

Initializing position-dependent things.

Density initialized from atomic densities
Creating initial wave functions:
  112 bands from LCAO basis set

               O     O  P  O
            PO           OMn     O
                  O          MO
            O        Li O
             Mn  Mn          OP
         O       O Li O
         Li     O P         O
       Li

Positions:
   0 O     -1.280122   -2.495595   -1.112331    ( 0.0000,  0.0000,  0.0000)
   1 O     -3.023238    2.918858    1.191723    ( 0.0000,  0.0000,  0.0000)
   2 O      1.997451    0.467212    1.441442    ( 0.0000,  0.0000,  0.0000)
   3 O      3.740343   -0.043905   -0.862614    ( 0.0000,  0.0000,  0.0000)
   4 O      1.997419    2.918835    1.441465    ( 0.0000,  0.0000,  0.0000)
   5 O      3.740372   -2.495531   -0.862587    ( 0.0000,  0.0000,  0.0000)
   6 O     -1.280154   -0.043891   -1.112309    ( 0.0000,  0.0000,  0.0000)
   7 O     -3.023210    0.467136    1.191750    ( 0.0000,  0.0000,  0.0000)
   8 O     -4.147405   -1.269737   -0.856207    ( 0.0000,  0.0000,  0.0000)
   9 O     -0.155894    1.692986    1.447725    ( 0.0000,  0.0000,  0.0000)
  10 O      4.864578    1.693016    1.185324    ( 0.0000,  0.0000,  0.0000)
  11 O      0.873163   -1.269706   -1.118625    ( 0.0000,  0.0000,  0.0000)
  12 Mn    -2.437108   -1.269902    0.302197    ( 0.0000,  0.0000,  1.0000)
  13 Mn    -1.866187    1.693156   -2.001927    ( 0.0000,  0.0000, -1.0000)
  14 Mn     3.154299    1.693181    0.026917    ( 0.0000,  0.0000, -1.0000)
  15 Mn     2.583444   -1.269877    2.331074    ( 0.0000,  0.0000,  1.0000)
  16 P     -0.543052   -1.269720   -1.734187    ( 0.0000,  0.0000,  0.0000)
  17 P     -3.760282    1.692974    0.569859    ( 0.0000,  0.0000,  0.0000)
  18 P      1.260300    1.693000    2.063344    ( 0.0000,  0.0000,  0.0000)
  19 P      4.477470   -1.269695   -0.240696    ( 0.0000,  0.0000,  0.0000)
  20 O     -0.544413   -1.269738    1.348523    ( 0.0000,  0.0000,  0.0000)
  21 O     -3.758895    1.692992   -0.955558    ( 0.0000,  0.0000,  0.0000)
  22 O      1.261690    1.693018   -1.019367    ( 0.0000,  0.0000,  0.0000)
  23 O      4.476045   -1.269713    1.284716    ( 0.0000,  0.0000,  0.0000)
  24 Li    -4.672027   -2.751322   -2.139440    ( 0.0000,  0.0000,  0.0000)
  25 Li     0.358703   -2.751277    0.164614    ( 0.0000,  0.0000,  0.0000)
  26 Li    -4.662011    0.211617   -2.139439    ( 0.0000,  0.0000,  0.0000)
  27 Li     0.358720    0.211628    0.164615    ( 0.0000,  0.0000,  0.0000)

Unit cell:
           periodic     x           y           z      points  spacing
  1. axis:    yes   10.041096    0.000054   -0.000022    60     0.1674
  2. axis:    yes    0.000032    5.925857    0.000001    35     0.1693
  3. axis:    yes   -0.000010    0.000001    4.608134    27     0.1707

  Lengths:  10.041096   5.925857   4.608134
  Angles:   89.999974  90.000250  89.999381

Effective grid spacing dv^(1/3) = 0.1691

                     log10-error:           total        iterations:
           time      wfs    density  force  energy       poisson  magmom
iter:   1  02:27:42                       -233.730334             +0.0000
iter:   2  02:28:02  -0.47  -0.95         -231.549991             +0.0003
iter:   3  02:28:22  -0.61  -1.00         -220.795882             +0.0003
iter:   4  02:28:42  -1.17  -1.31         -220.716206             +0.1002
iter:   5  02:29:02  -2.10  -1.41         -222.854840             +0.0155
iter:   6  02:29:21  -2.14  -1.40         -222.991773             +0.0735
iter:   7  02:29:41  -2.06  -1.54         -224.042545             +0.3238
iter:   8  02:30:01  -2.50  -1.72         -225.384324             +0.5386
iter:   9  02:30:20  -2.51  -1.89         -226.327001             +0.1573
iter:  10  02:30:40  -1.94  -1.95         -226.358849             -0.0223
iter:  11  02:31:00  -2.89  -2.10         -226.342251             +0.0029
iter:  12  02:31:19  -2.39  -2.12         -226.226777             +0.0055
iter:  13  02:31:39  -3.76  -2.62         -226.212196             +0.0011
iter:  14  02:31:59  -2.93  -2.69         -226.183827             -0.0018
iter:  15  02:32:18  -4.08  -3.01         -226.181109             -0.0002
iter:  16  02:32:38  -4.49  -3.12         -226.177089             +0.0005
iter:  17  02:32:58  -5.22  -3.20         -226.176957             +0.0001
iter:  18  02:33:17  -4.25  -3.28         -226.176156             -0.0000
iter:  19  02:33:37  -4.97  -3.48         -226.175548             +0.0000
iter:  20  02:33:57  -5.82  -3.65         -226.175504             -0.0000
iter:  21  02:34:17  -5.09  -3.68         -226.175544             -0.0000
iter:  22  02:34:36  -5.77  -3.89         -226.175382             -0.0000
iter:  23  02:34:56  -6.53  -4.01         -226.175350             -0.0000
iter:  24  02:35:16  -6.19  -4.09         -226.175318             +0.0000
iter:  25  02:35:35  -6.31  -4.26         -226.175303             -0.0000
iter:  26  02:35:55  -7.30  -4.35         -226.175298             +0.0000
iter:  27  02:36:15  -6.84  -4.39         -226.175295             +0.0000
iter:  28  02:36:34  -7.22  -4.44         -226.175296             +0.0000
iter:  29  02:36:59  -7.52  -4.49         -226.175295             -0.0000
iter:  30  02:37:23  -8.39  -4.56    -3.05-226.175295             +0.0000
iter:  31  02:37:47  -7.48  -4.62    -2.22-226.175296             +0.0000
iter:  32  02:38:12  -8.50  -4.87    -2.94-226.175295             +0.0000
iter:  33  02:38:31  -7.36  -4.94         -226.175294             +0.0000
iter:  34  02:38:56  -8.74  -5.25    -2.52-226.175294             +0.0000
iter:  35  02:39:20  -8.44  -5.31    -3.10-226.175294             +0.0000
iter:  36  02:39:44  -9.13  -5.38    -3.44-226.175294             +0.0000
iter:  37  02:40:09  -9.45  -5.45    -3.24-226.175294             +0.0000
iter:  38  02:40:33 -10.29  -5.57    -3.84-226.175294             +0.0000
iter:  39  02:40:57  -9.50  -5.64    -3.29-226.175294             +0.0000
iter:  40  02:41:22  -9.98  -5.88    -3.58-226.175294             +0.0000
iter:  41  02:41:46  -9.87  -6.11    -3.80-226.175294             +0.0000
iter:  42  02:42:10 -11.23  -6.49    -4.49-226.175294             +0.0000
iter:  43  02:42:35 -10.42  -6.59    -4.10-226.175294             -0.0000
iter:  44  02:42:59 -11.21  -6.78    -4.43-226.175294             +0.0000
iter:  45  02:43:23 -12.12  -7.00    -4.90-226.175294             +0.0000
iter:  46  02:43:48 -12.20  -7.06    -4.84-226.175294             +0.0000
iter:  47  02:44:12 -12.10  -7.06    -4.76-226.175294             +0.0000
iter:  48  02:44:36 -12.97  -7.34    -5.31-226.175294             +0.0000
iter:  49  02:45:01 -14.03  -7.42    -5.61-226.175294             +0.0000
iter:  50  02:45:25 -13.12  -7.47    -5.31-226.175294             +0.0000
iter:  51  02:45:49 -13.66  -7.55    -5.46-226.175294             +0.0000
iter:  52  02:46:14 -12.96  -7.65    -5.42-226.175294             +0.0000
iter:  53  02:46:38 -13.92  -7.67    -5.84-226.175294             +0.0000
iter:  54  02:47:02 -13.84  -7.72    -5.64-226.175294             +0.0000
iter:  55  02:47:26 -13.41  -7.77    -5.24-226.175294             +0.0000
iter:  56  02:47:51 -13.85  -7.83    -5.59-226.175294             +0.0000
iter:  57  02:48:15 -15.01  -8.03    -6.65-226.175294             +0.0000

Converged after 57 iterations.

Dipole moment: (18.324121, -2.306828, -4.524524) |e|*Ang

Total magnetic moment: (0.000000, 0.000000, 0.000000)
Local magnetic moments:
   0 O  ( 0.000000,  0.000000, -0.001806)
   1 O  ( 0.000000,  0.000000,  0.001834)
   2 O  ( 0.000000,  0.000000,  0.001813)
   3 O  ( 0.000000,  0.000000, -0.001807)
   4 O  ( 0.000000,  0.000000,  0.001807)
   5 O  ( 0.000000,  0.000000, -0.001778)
   6 O  ( 0.000000,  0.000000, -0.001811)
   7 O  ( 0.000000,  0.000000,  0.001816)
   8 O  ( 0.000000,  0.000000,  0.031052)
   9 O  ( 0.000000,  0.000000, -0.031057)
  10 O  ( 0.000000,  0.000000, -0.031142)
  11 O  ( 0.000000,  0.000000,  0.031136)
  12 Mn ( 0.000000,  0.000000,  4.395820)
  13 Mn ( 0.000000,  0.000000, -4.395852)
  14 Mn ( 0.000000,  0.000000, -4.395680)
  15 Mn ( 0.000000,  0.000000,  4.395681)
  16 P  ( 0.000000,  0.000000,  0.000858)
  17 P  ( 0.000000,  0.000000, -0.000850)
  18 P  ( 0.000000,  0.000000, -0.000879)
  19 P  ( 0.000000,  0.000000,  0.000884)
  20 O  ( 0.000000,  0.000000,  0.028408)
  21 O  ( 0.000000,  0.000000, -0.028406)
  22 O  ( 0.000000,  0.000000, -0.028429)
  23 O  ( 0.000000,  0.000000,  0.028430)
  24 Li ( 0.000000,  0.000000, -0.000027)
  25 Li ( 0.000000,  0.000000, -0.000000)
  26 Li ( 0.000000,  0.000000,  0.000001)
  27 Li ( 0.000000,  0.000000, -0.000000)

Energy contributions relative to reference atoms: (reference = -196157.275402)

Kinetic:       +277.624599
Potential:     -240.967024
External:        +0.000000
XC:            -264.721310
Entropy (-ST):   -0.000000
Local:           +1.888440
Free energy:   -226.175294
Extrapolated:  -226.175294

Spin contamination: 9.455313 electrons
Showing only first 2 kpts
                      Up                     Down
 Kpt  Band  Eigenvalues  Occupancy  Eigenvalues  Occupancy
  0    88      6.52993    0.00694      6.53041    0.00694
  0    89      6.56461    0.00694      6.56423    0.00694
  0    90      8.42553    0.00000      8.42653    0.00000
  0    91      8.44960    0.00000      8.44851    0.00000

  1    88      6.56814    0.00694      6.56891    0.00694
  1    89      6.59680    0.00694      6.59611    0.00694
  1    90      8.38200    0.00000      8.38278    0.00000
  1    91      8.40633    0.00000      8.40550    0.00000

Fermi level: 7.56766

Gap: 1.699 eV
Transition (v -> c):
  (s=1, k=93, n=89, [0.08, 0.42, -0.12]) -> (s=0, k=57, n=90, [-0.08, -0.08, -0.12])
Writing to born-0.01-24x-.gpw (mode='all')