User:   madkru@i013.nifl.fysik.dtu.dk
Date:   Mon Mar 22 16:17:44 2021
Arch:   x86_64
Pid:    27943
Python: 3.7.4
gpaw:   /home/niflheim/madkru/venv_folder/gpaw/gpaw (d0d1ca1c71)
_gpaw:  /home/niflheim/madkru/venv_folder/gpaw/build/lib.linux-x86_64-ivybridge-3.7/
        _gpaw.cpython-37m-x86_64-linux-gnu.so (4fd39e8b1e)
ase:    /home/niflheim/madkru/venv_folder/ase/ase (version 3.21.0b1-7e6c206a91)
numpy:  /home/niflheim/madkru/venv_folder/lib/python3.7/site-packages/numpy (version 1.19.4)
scipy:  /home/niflheim/madkru/venv_folder/lib/python3.7/site-packages/scipy (version 1.5.4)
units:  Angstrom and eV
cores: 32
OMP_NUM_THREADS: 1

Input parameters:
  convergence: {bands: occupied,
                density: 0.0001,
                eigenstates: 4e-08,
                energy: 0.0005,
                forces: 1e-06}
  kpts: [6 6 4]
  mode: {ecut: 600.0,
         gammacentered: False,
         name: pw}
  occupations: {fixmagmom: False,
                name: fermi-dirac,
                width: 0.001}
  symmetry: {point_group: False,
             time_reversal: False}

System changes: positions, numbers, cell, pbc, initial_charges, initial_magmoms

Initialize ...

O-setup:
  name: Oxygen
  id: 9b9d51c344dea68c822856295a461509
  Z: 8.0
  valence: 6
  core: 2
  charge: 0.0
  file: /home/modules/software/GPAW-setups/0.9.20000/O.LDA.gz
  compensation charges: gauss, rc=0.21, lmax=2
  cutoffs: 1.17(filt), 0.83(core),
  valence states:
                energy  radius
    2s(2.00)   -23.752   0.688
    2p(4.00)    -9.195   0.598
    *s           3.459   0.688
    *p          18.016   0.598
    *d           0.000   0.619

  Using partial waves for O as LCAO basis

Mn-setup:
  name: Manganese
  id: 0d715a8018be061a6e9ea6f2d364ac92
  Z: 25.0
  valence: 15
  core: 10
  charge: 0.0
  file: /home/modules/software/GPAW-setups/0.9.20000/Mn.LDA.gz
  compensation charges: gauss, rc=0.38, lmax=2
  cutoffs: 2.14(filt), 0.86(core),
  valence states:
                energy  radius
    3s(2.00)   -85.387   1.275
    4s(2.00)    -5.282   1.275
    3p(6.00)   -54.493   1.281
    4p(0.00)    -1.471   1.281
    3d(5.00)    -7.009   1.138
    *d          20.203   1.138

[...]

P-setup:
  name: Phosphorus
  id: a5561c299094968922a179ab894d2e2d
  Z: 15.0
  valence: 5
  core: 10
  charge: 0.0
  file: /home/modules/software/GPAW-setups/0.9.20000/P.LDA.gz
  compensation charges: gauss, rc=0.30, lmax=2
  cutoffs: 1.69(filt), 1.81(core),
  valence states:
                energy  radius
    3s(2.00)   -14.015   0.953
    3p(3.00)    -5.596   0.953
    *s          13.197   0.953
    *p          21.615   0.953
    *d           0.000   0.953

[...]

Li-setup:
  name: Lithium
  id: b73562207f97a71b6967473b66fe8b65
  Z: 3.0
  valence: 1
  core: 2
  charge: 0.0
  file: /home/modules/software/GPAW-setups/0.9.20000/Li.LDA.gz
  compensation charges: gauss, rc=0.33, lmax=2
  cutoffs: 1.91(filt), 2.55(core),
  valence states:
                energy  radius
    2s(1.00)    -2.874   1.058
    2p(0.00)    -1.126   1.058
    *s          24.338   1.058

  Using partial waves for Li as LCAO basis

Reference energy: -196157.275402

Spin-polarized calculation.
Magnetic moment: 0.000000

Convergence criteria:
  Maximum total energy change: 0.0005 eV / electron
  Maximum integral of absolute density change: 0.0001 electrons
  Maximum integral of absolute eigenstate change: 4e-08 eV^2
  Maximum change in atomic force: 1e-06 eV / Ang
  Maximum number of iterations: 333

Symmetries present (total): 1

  ( 1  0  0)
  ( 0  1  0)
  ( 0  0  1)

144 k-points: 6 x 6 x 4 Monkhorst-Pack grid
144 k-points in the irreducible part of the Brillouin zone
       k-points in crystal coordinates                weights
   0:    -0.41666667   -0.41666667   -0.37500000          1/144
   1:    -0.41666667   -0.41666667   -0.12500000          1/144
   2:    -0.41666667   -0.41666667    0.12500000          1/144
   3:    -0.41666667   -0.41666667    0.37500000          1/144
   4:    -0.41666667   -0.25000000   -0.37500000          1/144
   5:    -0.41666667   -0.25000000   -0.12500000          1/144
   6:    -0.41666667   -0.25000000    0.12500000          1/144
   7:    -0.41666667   -0.25000000    0.37500000          1/144
   8:    -0.41666667   -0.08333333   -0.37500000          1/144
   9:    -0.41666667   -0.08333333   -0.12500000          1/144
          ...
 143:     0.41666667    0.41666667    0.37500000          1/144

Wave functions: Plane wave expansion
  Cutoff energy: 600.000 eV
  Number of coefficients (min, max): 9132, 9161
  Pulay-stress correction: 0.000000 eV/Ang^3 (de/decut=0.000000)
  Using FFTW library
  ScaLapack parameters: grid=1x1, blocksize=None
  Wavefunction extrapolation:
    Improved wavefunction reuse through dual PAW basis

  Fermi-Dirac: width=0.0010 eV

Eigensolver
   Davidson(niter=2, smin=None, normalize=True)

Densities:
  Coarse grid: 60*35*27 grid
  Fine grid: 120*70*54 grid
  Total Charge: 0.000000

Density mixing:
  Method: difference
  Backend: pulay
  Linear mixing parameter: 0.05
  Mixing with 5 old densities
  Damping of long wave oscillations: 50

Hamiltonian:
  XC and Coulomb potentials evaluated on a 120*70*54 grid
  Using the LDA Exchange-Correlation functional

Total number of cores used: 32
Parallelization over k-points: 16
Domain decomposition: 2 x 1 x 1

Number of atoms: 28
Number of atomic orbitals: 148
Number of bands in calculation: 112
Number of valence electrons: 180
Bands to converge: occupied

... initialized

Initializing position-dependent things.

Density initialized from atomic densities
Creating initial wave functions:
  112 bands from LCAO basis set

               O     O  P  O
            PO           OMn     O
                  O          MO
            O        Li O
             Mn  Mn          OP
         O       O Li O
         Li     O P         O
       Li

Positions:
   0 O     -1.280122   -2.495595   -1.112331    ( 0.0000,  0.0000,  0.0000)
   1 O     -3.023238    2.918858    1.191723    ( 0.0000,  0.0000,  0.0000)
   2 O      1.997451    0.467212    1.441442    ( 0.0000,  0.0000,  0.0000)
   3 O      3.740343   -0.043905   -0.862614    ( 0.0000,  0.0000,  0.0000)
   4 O      1.997419    2.918835    1.441465    ( 0.0000,  0.0000,  0.0000)
   5 O      3.740372   -2.495531   -0.862587    ( 0.0000,  0.0000,  0.0000)
   6 O     -1.280154   -0.043891   -1.112309    ( 0.0000,  0.0000,  0.0000)
   7 O     -3.023210    0.477136    1.191750    ( 0.0000,  0.0000,  0.0000)
   8 O     -4.147405   -1.269737   -0.856207    ( 0.0000,  0.0000,  0.0000)
   9 O     -0.155894    1.692986    1.447725    ( 0.0000,  0.0000,  0.0000)
  10 O      4.864578    1.693016    1.185324    ( 0.0000,  0.0000,  0.0000)
  11 O      0.873163   -1.269706   -1.118625    ( 0.0000,  0.0000,  0.0000)
  12 Mn    -2.437108   -1.269902    0.302197    ( 0.0000,  0.0000,  1.0000)
  13 Mn    -1.866187    1.693156   -2.001927    ( 0.0000,  0.0000, -1.0000)
  14 Mn     3.154299    1.693181    0.026917    ( 0.0000,  0.0000, -1.0000)
  15 Mn     2.583444   -1.269877    2.331074    ( 0.0000,  0.0000,  1.0000)
  16 P     -0.543052   -1.269720   -1.734187    ( 0.0000,  0.0000,  0.0000)
  17 P     -3.760282    1.692974    0.569859    ( 0.0000,  0.0000,  0.0000)
  18 P      1.260300    1.693000    2.063344    ( 0.0000,  0.0000,  0.0000)
  19 P      4.477470   -1.269695   -0.240696    ( 0.0000,  0.0000,  0.0000)
  20 O     -0.544413   -1.269738    1.348523    ( 0.0000,  0.0000,  0.0000)
  21 O     -3.758895    1.692992   -0.955558    ( 0.0000,  0.0000,  0.0000)
  22 O      1.261690    1.693018   -1.019367    ( 0.0000,  0.0000,  0.0000)
  23 O      4.476045   -1.269713    1.284716    ( 0.0000,  0.0000,  0.0000)
  24 Li    -4.662027   -2.751322   -2.139440    ( 0.0000,  0.0000,  0.0000)
  25 Li     0.358703   -2.751277    0.164614    ( 0.0000,  0.0000,  0.0000)
  26 Li    -4.662011    0.211617   -2.139439    ( 0.0000,  0.0000,  0.0000)
  27 Li     0.358720    0.211628    0.164615    ( 0.0000,  0.0000,  0.0000)

Unit cell:
           periodic     x           y           z      points  spacing
  1. axis:    yes   10.041096    0.000054   -0.000022    60     0.1674
  2. axis:    yes    0.000032    5.925857    0.000001    35     0.1693
  3. axis:    yes   -0.000010    0.000001    4.608134    27     0.1707

  Lengths:  10.041096   5.925857   4.608134
  Angles:   89.999974  90.000250  89.999381

Effective grid spacing dv^(1/3) = 0.1691

                     log10-error:           total        iterations:
           time      wfs    density  force  energy       poisson  magmom
iter:   1  16:20:49                       -233.723765             +0.0000
iter:   2  16:21:25  -0.47  -0.95         -231.548682             +0.0034
iter:   3  16:22:01  -0.60  -1.00         -220.818295             +0.0035
iter:   4  16:22:37  -1.22  -1.30         -221.601398             -0.2823
iter:   5  16:23:14  -2.15  -1.37         -222.371093             -0.1573
iter:   6  16:23:50  -2.26  -1.39         -224.276507             -0.0093
iter:   7  16:24:26  -2.15  -1.51         -224.528993             -0.0306
iter:   8  16:25:02  -2.56  -1.64         -225.844966             -0.0065
iter:   9  16:25:39  -2.37  -1.91         -226.408112             +0.0053
iter:  10  16:26:15  -2.19  -2.10         -226.251826             +0.0014
iter:  11  16:26:51  -2.68  -2.28         -226.300315             +0.0008
iter:  12  16:27:27  -2.34  -2.34         -226.232788             +0.0005
iter:  13  16:28:03  -3.44  -2.85         -226.188889             +0.0002
iter:  14  16:28:39  -3.28  -2.98         -226.186064             +0.0000
iter:  15  16:29:16  -3.63  -2.98         -226.175689             +0.0000
iter:  16  16:29:52  -4.66  -3.33         -226.175498             +0.0000
iter:  17  16:30:28  -4.83  -3.39         -226.174143             -0.0000
iter:  18  16:31:04  -5.23  -3.51         -226.174560             -0.0000
iter:  19  16:31:41  -5.04  -3.53         -226.174109             -0.0000
iter:  20  16:32:17  -5.81  -3.58         -226.174123             -0.0000
iter:  21  16:32:53  -5.97  -3.66         -226.174136             +0.0000
iter:  22  16:33:29  -5.61  -3.87         -226.173975             -0.0000
iter:  23  16:34:05  -5.34  -4.04         -226.173988             -0.0000
iter:  24  16:34:41  -5.95  -4.02         -226.173870             -0.0000
iter:  25  16:35:17  -6.53  -4.17         -226.173865             -0.0000
iter:  26  16:35:54  -6.92  -4.22         -226.173867             -0.0000
iter:  27  16:36:30  -6.81  -4.45         -226.173862             -0.0000
iter:  28  16:37:15  -7.49  -4.59         -226.173863             -0.0000
iter:  29  16:37:51  -7.36  -4.66         -226.173862             -0.0000
iter:  30  16:38:37  -7.55  -4.73    -2.50-226.173860             -0.0000
iter:  31  16:39:22  -8.43  -4.95    -3.03-226.173860             -0.0000
iter:  32  16:40:08  -8.35  -4.98    -2.82-226.173860             +0.0000
iter:  33  16:40:53  -8.56  -5.04    -3.19-226.173860             +0.0000
iter:  34  16:41:38  -7.93  -5.06    -2.76-226.173860             +0.0000
iter:  35  16:42:23  -9.02  -5.27    -3.02-226.173860             +0.0000
iter:  36  16:43:09  -9.00  -5.58    -3.42-226.173860             +0.0000
iter:  37  16:43:54  -9.53  -5.68    -3.83-226.173860             +0.0000
iter:  38  16:44:40  -9.40  -5.74    -3.53-226.173860             +0.0000
iter:  39  16:45:25 -10.10  -5.81    -3.90-226.173860             +0.0000
iter:  40  16:46:10  -9.67  -5.85    -3.74-226.173860             -0.0000
iter:  41  16:46:56  -9.87  -6.08    -3.55-226.173860             -0.0000
iter:  42  16:47:41 -10.93  -6.37    -4.58-226.173860             -0.0000
iter:  43  16:48:26 -11.01  -6.43    -4.43-226.173860             -0.0000
iter:  44  16:49:12 -10.95  -6.56    -4.16-226.173860             -0.0000
iter:  45  16:49:57 -11.84  -6.67    -4.69-226.173860             -0.0000
iter:  46  16:50:42 -11.45  -6.74    -4.70-226.173860             -0.0000
iter:  47  16:51:28 -11.56  -6.86    -4.32-226.173860             -0.0000
iter:  48  16:52:13 -11.93  -7.13    -4.73-226.173860             -0.0000
iter:  49  16:52:58 -12.37  -7.26    -5.05-226.173860             -0.0000
iter:  50  16:53:44 -12.84  -7.50    -5.28-226.173860             -0.0000
iter:  51  16:54:29 -13.40  -7.69    -5.40-226.173860             -0.0000
iter:  52  16:55:14 -13.27  -7.80    -5.31-226.173860             -0.0000
iter:  53  16:55:59 -14.22  -7.91    -5.76-226.173860             -0.0000
iter:  54  16:56:45 -14.56  -7.96    -6.08-226.173860             -0.0000

Converged after 54 iterations.

Dipole moment: (18.328289, -2.147847, -4.523058) |e|*Ang

Total magnetic moment: (0.000000, 0.000000, -0.000000)
Local magnetic moments:
   0 O  ( 0.000000,  0.000000, -0.001572)
   1 O  ( 0.000000,  0.000000,  0.001959)
   2 O  ( 0.000000,  0.000000,  0.001821)
   3 O  ( 0.000000,  0.000000, -0.001791)
   4 O  ( 0.000000,  0.000000,  0.001813)
   5 O  ( 0.000000,  0.000000, -0.001792)
   6 O  ( 0.000000,  0.000000, -0.001845)
   7 O  ( 0.000000,  0.000000,  0.001413)
   8 O  ( 0.000000,  0.000000,  0.031088)
   9 O  ( 0.000000,  0.000000, -0.031098)
  10 O  ( 0.000000,  0.000000, -0.031335)
  11 O  ( 0.000000,  0.000000,  0.031077)
  12 Mn ( 0.000000,  0.000000,  4.397538)
  13 Mn ( 0.000000,  0.000000, -4.396091)
  14 Mn ( 0.000000,  0.000000, -4.395865)
  15 Mn ( 0.000000,  0.000000,  4.395731)
  16 P  ( 0.000000,  0.000000,  0.000850)
  17 P  ( 0.000000,  0.000000, -0.001251)
  18 P  ( 0.000000,  0.000000, -0.000879)
  19 P  ( 0.000000,  0.000000,  0.000851)
  20 O  ( 0.000000,  0.000000,  0.028368)
  21 O  ( 0.000000,  0.000000, -0.028573)
  22 O  ( 0.000000,  0.000000, -0.028399)
  23 O  ( 0.000000,  0.000000,  0.028421)
  24 Li ( 0.000000,  0.000000, -0.000002)
  25 Li ( 0.000000,  0.000000, -0.000001)
  26 Li ( 0.000000,  0.000000, -0.000030)
  27 Li ( 0.000000,  0.000000, -0.000001)

Energy contributions relative to reference atoms: (reference = -196157.275402)

Kinetic:       +278.151508
Potential:     -241.375045
External:        +0.000000
XC:            -264.837751
Entropy (-ST):   -0.000000
Local:           +1.887428
Free energy:   -226.173860
Extrapolated:  -226.173860

Spin contamination: 9.456588 electrons
Showing only first 2 kpts
                      Up                     Down
 Kpt  Band  Eigenvalues  Occupancy  Eigenvalues  Occupancy
  0    88      6.52365    0.00694      6.53297    0.00694
  0    89      6.55841    0.00694      6.56653    0.00694
  0    90      8.42885    0.00000      8.42147    0.00000
  0    91      8.45061    0.00000      8.44535    0.00000

  1    88      6.56193    0.00694      6.57147    0.00694
  1    89      6.59050    0.00694      6.59863    0.00694
  1    90      8.38583    0.00000      8.37813    0.00000
  1    91      8.40868    0.00000      8.40218    0.00000

Fermi level: 7.64593

Gap: 1.693 eV
Transition (v -> c):
  (s=1, k=69, n=89, [-0.08, 0.42, -0.12]) -> (s=1, k=86, n=90, [0.08, 0.08, 0.12])
Writing to born-0.01-7y+.gpw (mode='all')