User:   madkru@i013.nifl.fysik.dtu.dk
Date:   Mon Mar 22 02:58:30 2021
Arch:   x86_64
Pid:    27943
Python: 3.7.4
gpaw:   /home/niflheim/madkru/venv_folder/gpaw/gpaw (d0d1ca1c71)
_gpaw:  /home/niflheim/madkru/venv_folder/gpaw/build/lib.linux-x86_64-ivybridge-3.7/
        _gpaw.cpython-37m-x86_64-linux-gnu.so (4fd39e8b1e)
ase:    /home/niflheim/madkru/venv_folder/ase/ase (version 3.21.0b1-7e6c206a91)
numpy:  /home/niflheim/madkru/venv_folder/lib/python3.7/site-packages/numpy (version 1.19.4)
scipy:  /home/niflheim/madkru/venv_folder/lib/python3.7/site-packages/scipy (version 1.5.4)
units:  Angstrom and eV
cores: 32
OMP_NUM_THREADS: 1

Input parameters:
  convergence: {bands: occupied,
                density: 0.0001,
                eigenstates: 4e-08,
                energy: 0.0005,
                forces: 1e-06}
  kpts: [6 6 4]
  mode: {ecut: 600.0,
         gammacentered: False,
         name: pw}
  occupations: {fixmagmom: False,
                name: fermi-dirac,
                width: 0.001}
  symmetry: {point_group: False,
             time_reversal: False}

System changes: positions, numbers, cell, pbc, initial_charges, initial_magmoms

Initialize ...

O-setup:
  name: Oxygen
  id: 9b9d51c344dea68c822856295a461509
  Z: 8.0
  valence: 6
  core: 2
  charge: 0.0
  file: /home/modules/software/GPAW-setups/0.9.20000/O.LDA.gz
  compensation charges: gauss, rc=0.21, lmax=2
  cutoffs: 1.17(filt), 0.83(core),
  valence states:
                energy  radius
    2s(2.00)   -23.752   0.688
    2p(4.00)    -9.195   0.598
    *s           3.459   0.688
    *p          18.016   0.598
    *d           0.000   0.619

  Using partial waves for O as LCAO basis

Mn-setup:
  name: Manganese
  id: 0d715a8018be061a6e9ea6f2d364ac92
  Z: 25.0
  valence: 15
  core: 10
  charge: 0.0
  file: /home/modules/software/GPAW-setups/0.9.20000/Mn.LDA.gz
  compensation charges: gauss, rc=0.38, lmax=2
  cutoffs: 2.14(filt), 0.86(core),
  valence states:
                energy  radius
    3s(2.00)   -85.387   1.275
    4s(2.00)    -5.282   1.275
    3p(6.00)   -54.493   1.281
    4p(0.00)    -1.471   1.281
    3d(5.00)    -7.009   1.138
    *d          20.203   1.138

[...]

P-setup:
  name: Phosphorus
  id: a5561c299094968922a179ab894d2e2d
  Z: 15.0
  valence: 5
  core: 10
  charge: 0.0
  file: /home/modules/software/GPAW-setups/0.9.20000/P.LDA.gz
  compensation charges: gauss, rc=0.30, lmax=2
  cutoffs: 1.69(filt), 1.81(core),
  valence states:
                energy  radius
    3s(2.00)   -14.015   0.953
    3p(3.00)    -5.596   0.953
    *s          13.197   0.953
    *p          21.615   0.953
    *d           0.000   0.953

[...]

Li-setup:
  name: Lithium
  id: b73562207f97a71b6967473b66fe8b65
  Z: 3.0
  valence: 1
  core: 2
  charge: 0.0
  file: /home/modules/software/GPAW-setups/0.9.20000/Li.LDA.gz
  compensation charges: gauss, rc=0.33, lmax=2
  cutoffs: 1.91(filt), 2.55(core),
  valence states:
                energy  radius
    2s(1.00)    -2.874   1.058
    2p(0.00)    -1.126   1.058
    *s          24.338   1.058

  Using partial waves for Li as LCAO basis

Reference energy: -196157.275402

Spin-polarized calculation.
Magnetic moment: 0.000000

Convergence criteria:
  Maximum total energy change: 0.0005 eV / electron
  Maximum integral of absolute density change: 0.0001 electrons
  Maximum integral of absolute eigenstate change: 4e-08 eV^2
  Maximum change in atomic force: 1e-06 eV / Ang
  Maximum number of iterations: 333

Symmetries present (total): 1

  ( 1  0  0)
  ( 0  1  0)
  ( 0  0  1)

144 k-points: 6 x 6 x 4 Monkhorst-Pack grid
144 k-points in the irreducible part of the Brillouin zone
       k-points in crystal coordinates                weights
   0:    -0.41666667   -0.41666667   -0.37500000          1/144
   1:    -0.41666667   -0.41666667   -0.12500000          1/144
   2:    -0.41666667   -0.41666667    0.12500000          1/144
   3:    -0.41666667   -0.41666667    0.37500000          1/144
   4:    -0.41666667   -0.25000000   -0.37500000          1/144
   5:    -0.41666667   -0.25000000   -0.12500000          1/144
   6:    -0.41666667   -0.25000000    0.12500000          1/144
   7:    -0.41666667   -0.25000000    0.37500000          1/144
   8:    -0.41666667   -0.08333333   -0.37500000          1/144
   9:    -0.41666667   -0.08333333   -0.12500000          1/144
          ...
 143:     0.41666667    0.41666667    0.37500000          1/144

Wave functions: Plane wave expansion
  Cutoff energy: 600.000 eV
  Number of coefficients (min, max): 9132, 9161
  Pulay-stress correction: 0.000000 eV/Ang^3 (de/decut=0.000000)
  Using FFTW library
  ScaLapack parameters: grid=1x1, blocksize=None
  Wavefunction extrapolation:
    Improved wavefunction reuse through dual PAW basis

  Fermi-Dirac: width=0.0010 eV

Eigensolver
   Davidson(niter=2, smin=None, normalize=True)

Densities:
  Coarse grid: 60*35*27 grid
  Fine grid: 120*70*54 grid
  Total Charge: 0.000000

Density mixing:
  Method: difference
  Backend: pulay
  Linear mixing parameter: 0.05
  Mixing with 5 old densities
  Damping of long wave oscillations: 50

Hamiltonian:
  XC and Coulomb potentials evaluated on a 120*70*54 grid
  Using the LDA Exchange-Correlation functional

Total number of cores used: 32
Parallelization over k-points: 16
Domain decomposition: 2 x 1 x 1

Number of atoms: 28
Number of atomic orbitals: 148
Number of bands in calculation: 112
Number of valence electrons: 180
Bands to converge: occupied

... initialized

Initializing position-dependent things.

Density initialized from atomic densities
Creating initial wave functions:
  112 bands from LCAO basis set

               O     O  P  O
            PO           OMn     O
                  O          MO
            O        Li O
             Mn  Mn          OP
         O       O Li O
         Li     O P         O
       Li

Positions:
   0 O     -1.280122   -2.495595   -1.112331    ( 0.0000,  0.0000,  0.0000)
   1 O     -3.023238    2.918858    1.191723    ( 0.0000,  0.0000,  0.0000)
   2 O      1.997451    0.467212    1.441442    ( 0.0000,  0.0000,  0.0000)
   3 O      3.740343   -0.043905   -0.862614    ( 0.0000,  0.0000,  0.0000)
   4 O      1.997419    2.918835    1.451465    ( 0.0000,  0.0000,  0.0000)
   5 O      3.740372   -2.495531   -0.862587    ( 0.0000,  0.0000,  0.0000)
   6 O     -1.280154   -0.043891   -1.112309    ( 0.0000,  0.0000,  0.0000)
   7 O     -3.023210    0.467136    1.191750    ( 0.0000,  0.0000,  0.0000)
   8 O     -4.147405   -1.269737   -0.856207    ( 0.0000,  0.0000,  0.0000)
   9 O     -0.155894    1.692986    1.447725    ( 0.0000,  0.0000,  0.0000)
  10 O      4.864578    1.693016    1.185324    ( 0.0000,  0.0000,  0.0000)
  11 O      0.873163   -1.269706   -1.118625    ( 0.0000,  0.0000,  0.0000)
  12 Mn    -2.437108   -1.269902    0.302197    ( 0.0000,  0.0000,  1.0000)
  13 Mn    -1.866187    1.693156   -2.001927    ( 0.0000,  0.0000, -1.0000)
  14 Mn     3.154299    1.693181    0.026917    ( 0.0000,  0.0000, -1.0000)
  15 Mn     2.583444   -1.269877    2.331074    ( 0.0000,  0.0000,  1.0000)
  16 P     -0.543052   -1.269720   -1.734187    ( 0.0000,  0.0000,  0.0000)
  17 P     -3.760282    1.692974    0.569859    ( 0.0000,  0.0000,  0.0000)
  18 P      1.260300    1.693000    2.063344    ( 0.0000,  0.0000,  0.0000)
  19 P      4.477470   -1.269695   -0.240696    ( 0.0000,  0.0000,  0.0000)
  20 O     -0.544413   -1.269738    1.348523    ( 0.0000,  0.0000,  0.0000)
  21 O     -3.758895    1.692992   -0.955558    ( 0.0000,  0.0000,  0.0000)
  22 O      1.261690    1.693018   -1.019367    ( 0.0000,  0.0000,  0.0000)
  23 O      4.476045   -1.269713    1.284716    ( 0.0000,  0.0000,  0.0000)
  24 Li    -4.662027   -2.751322   -2.139440    ( 0.0000,  0.0000,  0.0000)
  25 Li     0.358703   -2.751277    0.164614    ( 0.0000,  0.0000,  0.0000)
  26 Li    -4.662011    0.211617   -2.139439    ( 0.0000,  0.0000,  0.0000)
  27 Li     0.358720    0.211628    0.164615    ( 0.0000,  0.0000,  0.0000)

Unit cell:
           periodic     x           y           z      points  spacing
  1. axis:    yes   10.041096    0.000054   -0.000022    60     0.1674
  2. axis:    yes    0.000032    5.925857    0.000001    35     0.1693
  3. axis:    yes   -0.000010    0.000001    4.608134    27     0.1707

  Lengths:  10.041096   5.925857   4.608134
  Angles:   89.999974  90.000250  89.999381

Effective grid spacing dv^(1/3) = 0.1691

                     log10-error:           total        iterations:
           time      wfs    density  force  energy       poisson  magmom
iter:   1  03:01:34                       -233.725021             +0.0000
iter:   2  03:02:10  -0.47  -0.95         -231.551846             +0.0016
iter:   3  03:02:46  -0.60  -1.00         -220.842028             +0.0017
iter:   4  03:03:23  -1.21  -1.30         -221.701035             +0.3755
iter:   5  03:03:59  -2.07  -1.37         -222.249674             +0.1825
iter:   6  03:04:35  -2.35  -1.40         -224.262502             -0.1294
iter:   7  03:05:11  -2.03  -1.49         -225.251365             -0.9443
iter:   8  03:05:48  -2.29  -1.62         -226.273956             -0.6847
iter:   9  03:06:24  -2.56  -1.94         -226.249561             -0.8463
iter:  10  03:07:00  -2.92  -2.11         -226.326208             -0.3883
iter:  11  03:07:36  -2.92  -2.14         -226.332098             +0.0149
iter:  12  03:08:13  -2.30  -2.17         -226.218770             +0.0025
iter:  13  03:08:49  -3.11  -2.57         -226.224174             +0.0040
iter:  14  03:09:25  -3.52  -2.70         -226.191437             +0.0007
iter:  15  03:10:01  -3.43  -2.92         -226.177010             +0.0001
iter:  16  03:10:38  -4.25  -3.11         -226.178272             +0.0001
iter:  17  03:11:14  -4.66  -3.19         -226.176085             +0.0000
iter:  18  03:11:50  -4.94  -3.27         -226.176592             +0.0000
iter:  19  03:12:26  -5.34  -3.34         -226.176107             +0.0000
iter:  20  03:13:02  -5.41  -3.39         -226.175604             +0.0000
iter:  21  03:13:39  -4.87  -3.43         -226.174904             +0.0000
iter:  22  03:14:15  -5.41  -3.67         -226.174900             +0.0000
iter:  23  03:14:51  -5.57  -3.75         -226.174820             +0.0000
iter:  24  03:15:27  -6.16  -3.99         -226.174864             +0.0000
iter:  25  03:16:04  -6.65  -4.28         -226.174851             -0.0000
iter:  26  03:16:40  -6.75  -4.43         -226.174828             -0.0000
iter:  27  03:17:16  -7.04  -4.53         -226.174821             -0.0000
iter:  28  03:17:52  -7.20  -4.71         -226.174819             -0.0000
iter:  29  03:18:28  -7.40  -4.85         -226.174817             -0.0000
iter:  30  03:19:14  -8.02  -5.04         -226.174817             +0.0000
iter:  31  03:19:59  -8.06  -5.11    -2.92-226.174817             +0.0000
iter:  32  03:20:44  -8.71  -5.29    -3.08-226.174817             +0.0000
iter:  33  03:21:30  -9.14  -5.46    -3.57-226.174817             +0.0000
iter:  34  03:22:15  -9.10  -5.52    -3.35-226.174817             +0.0000
iter:  35  03:23:00  -9.50  -5.60    -3.84-226.174817             +0.0000
iter:  36  03:23:46 -10.41  -5.69    -3.95-226.174817             +0.0000
iter:  37  03:24:31  -9.61  -5.73    -3.16-226.174817             +0.0000
iter:  38  03:25:16  -9.96  -6.00    -4.22-226.174817             +0.0000
iter:  39  03:26:02 -11.04  -6.18    -4.31-226.174817             +0.0000
iter:  40  03:26:47  -9.97  -6.24    -3.65-226.174817             -0.0000
iter:  41  03:27:32 -11.26  -6.57    -4.59-226.174817             +0.0000
iter:  42  03:28:18 -10.52  -6.64    -4.16-226.174817             +0.0000
iter:  43  03:29:03 -10.87  -6.76    -4.07-226.174817             -0.0000
iter:  44  03:29:48 -12.13  -7.03    -4.86-226.174817             -0.0000
iter:  45  03:30:34 -12.95  -7.14    -5.31-226.174817             -0.0000
iter:  46  03:31:19 -12.45  -7.20    -5.22-226.174817             -0.0000
iter:  47  03:32:04 -12.42  -7.26    -5.02-226.174817             -0.0000
iter:  48  03:32:50 -12.80  -7.33    -5.10-226.174817             -0.0000
iter:  49  03:33:35 -12.53  -7.39    -5.36-226.174817             -0.0000
iter:  50  03:34:20 -13.41  -7.73    -5.86-226.174817             -0.0000
iter:  51  03:35:06 -13.41  -7.77    -5.57-226.174817             -0.0000
iter:  52  03:35:51 -13.62  -7.90    -5.81-226.174817             -0.0000
iter:  53  03:36:36 -13.96  -8.02    -5.89-226.174817             -0.0000
iter:  54  03:37:21 -14.28  -8.17    -6.50-226.174817             -0.0000

Converged after 54 iterations.

Dipole moment: (18.327915, -2.306185, -4.527969) |e|*Ang

Total magnetic moment: (0.000000, 0.000000, -0.000000)
Local magnetic moments:
   0 O  ( 0.000000,  0.000000, -0.001797)
   1 O  ( 0.000000,  0.000000,  0.001813)
   2 O  ( 0.000000,  0.000000,  0.001825)
   3 O  ( 0.000000,  0.000000, -0.001950)
   4 O  ( 0.000000,  0.000000,  0.002087)
   5 O  ( 0.000000,  0.000000, -0.001755)
   6 O  ( 0.000000,  0.000000, -0.001800)
   7 O  ( 0.000000,  0.000000,  0.001822)
   8 O  ( 0.000000,  0.000000,  0.031091)
   9 O  ( 0.000000,  0.000000, -0.031004)
  10 O  ( 0.000000,  0.000000, -0.031076)
  11 O  ( 0.000000,  0.000000,  0.031151)
  12 Mn ( 0.000000,  0.000000,  4.395787)
  13 Mn ( 0.000000,  0.000000, -4.395764)
  14 Mn ( 0.000000,  0.000000, -4.396268)
  15 Mn ( 0.000000,  0.000000,  4.395298)
  16 P  ( 0.000000,  0.000000,  0.000874)
  17 P  ( 0.000000,  0.000000, -0.000852)
  18 P  ( 0.000000,  0.000000, -0.000660)
  19 P  ( 0.000000,  0.000000,  0.000878)
  20 O  ( 0.000000,  0.000000,  0.028430)
  21 O  ( 0.000000,  0.000000, -0.028412)
  22 O  ( 0.000000,  0.000000, -0.028423)
  23 O  ( 0.000000,  0.000000,  0.028441)
  24 Li ( 0.000000,  0.000000, -0.000001)
  25 Li ( 0.000000,  0.000000,  0.000007)
  26 Li ( 0.000000,  0.000000,  0.000001)
  27 Li ( 0.000000,  0.000000,  0.000001)

Energy contributions relative to reference atoms: (reference = -196157.275402)

Kinetic:       +277.876289
Potential:     -241.161150
External:        +0.000000
XC:            -264.777595
Entropy (-ST):   -0.000000
Local:           +1.887639
Free energy:   -226.174817
Extrapolated:  -226.174817

Spin contamination: 9.455472 electrons
Showing only first 2 kpts
                      Up                     Down
 Kpt  Band  Eigenvalues  Occupancy  Eigenvalues  Occupancy
  0    88      6.53199    0.00694      6.52832    0.00694
  0    89      6.56553    0.00694      6.56162    0.00694
  0    90      8.42405    0.00000      8.42628    0.00000
  0    91      8.44659    0.00000      8.44781    0.00000

  1    88      6.57028    0.00694      6.56665    0.00694
  1    89      6.59720    0.00694      6.59322    0.00694
  1    90      8.38104    0.00000      8.38276    0.00000
  1    91      8.40361    0.00000      8.40486    0.00000

Fermi level: 7.98236

Gap: 1.697 eV
Transition (v -> c):
  (s=0, k=50, n=89, [-0.08, -0.42, 0.12]) -> (s=0, k=85, n=90, [0.08, 0.08, -0.12])
Writing to born-0.01-4z+.gpw (mode='all')