User:   madkru@i013.nifl.fysik.dtu.dk
Date:   Mon Mar 22 11:19:46 2021
Arch:   x86_64
Pid:    27943
Python: 3.7.4
gpaw:   /home/niflheim/madkru/venv_folder/gpaw/gpaw (d0d1ca1c71)
_gpaw:  /home/niflheim/madkru/venv_folder/gpaw/build/lib.linux-x86_64-ivybridge-3.7/
        _gpaw.cpython-37m-x86_64-linux-gnu.so (4fd39e8b1e)
ase:    /home/niflheim/madkru/venv_folder/ase/ase (version 3.21.0b1-7e6c206a91)
numpy:  /home/niflheim/madkru/venv_folder/lib/python3.7/site-packages/numpy (version 1.19.4)
scipy:  /home/niflheim/madkru/venv_folder/lib/python3.7/site-packages/scipy (version 1.5.4)
units:  Angstrom and eV
cores: 32
OMP_NUM_THREADS: 1

Input parameters:
  convergence: {bands: occupied,
                density: 0.0001,
                eigenstates: 4e-08,
                energy: 0.0005,
                forces: 1e-06}
  kpts: [6 6 4]
  mode: {ecut: 600.0,
         gammacentered: False,
         name: pw}
  occupations: {fixmagmom: False,
                name: fermi-dirac,
                width: 0.001}
  symmetry: {point_group: False,
             time_reversal: False}

System changes: positions, numbers, cell, pbc, initial_charges, initial_magmoms

Initialize ...

O-setup:
  name: Oxygen
  id: 9b9d51c344dea68c822856295a461509
  Z: 8.0
  valence: 6
  core: 2
  charge: 0.0
  file: /home/modules/software/GPAW-setups/0.9.20000/O.LDA.gz
  compensation charges: gauss, rc=0.21, lmax=2
  cutoffs: 1.17(filt), 0.83(core),
  valence states:
                energy  radius
    2s(2.00)   -23.752   0.688
    2p(4.00)    -9.195   0.598
    *s           3.459   0.688
    *p          18.016   0.598
    *d           0.000   0.619

  Using partial waves for O as LCAO basis

Mn-setup:
  name: Manganese
  id: 0d715a8018be061a6e9ea6f2d364ac92
  Z: 25.0
  valence: 15
  core: 10
  charge: 0.0
  file: /home/modules/software/GPAW-setups/0.9.20000/Mn.LDA.gz
  compensation charges: gauss, rc=0.38, lmax=2
  cutoffs: 2.14(filt), 0.86(core),
  valence states:
                energy  radius
    3s(2.00)   -85.387   1.275
    4s(2.00)    -5.282   1.275
    3p(6.00)   -54.493   1.281
    4p(0.00)    -1.471   1.281
    3d(5.00)    -7.009   1.138
    *d          20.203   1.138

[...]

P-setup:
  name: Phosphorus
  id: a5561c299094968922a179ab894d2e2d
  Z: 15.0
  valence: 5
  core: 10
  charge: 0.0
  file: /home/modules/software/GPAW-setups/0.9.20000/P.LDA.gz
  compensation charges: gauss, rc=0.30, lmax=2
  cutoffs: 1.69(filt), 1.81(core),
  valence states:
                energy  radius
    3s(2.00)   -14.015   0.953
    3p(3.00)    -5.596   0.953
    *s          13.197   0.953
    *p          21.615   0.953
    *d           0.000   0.953

[...]

Li-setup:
  name: Lithium
  id: b73562207f97a71b6967473b66fe8b65
  Z: 3.0
  valence: 1
  core: 2
  charge: 0.0
  file: /home/modules/software/GPAW-setups/0.9.20000/Li.LDA.gz
  compensation charges: gauss, rc=0.33, lmax=2
  cutoffs: 1.91(filt), 2.55(core),
  valence states:
                energy  radius
    2s(1.00)    -2.874   1.058
    2p(0.00)    -1.126   1.058
    *s          24.338   1.058

  Using partial waves for Li as LCAO basis

Reference energy: -196157.275402

Spin-polarized calculation.
Magnetic moment: 0.000000

Convergence criteria:
  Maximum total energy change: 0.0005 eV / electron
  Maximum integral of absolute density change: 0.0001 electrons
  Maximum integral of absolute eigenstate change: 4e-08 eV^2
  Maximum change in atomic force: 1e-06 eV / Ang
  Maximum number of iterations: 333

Symmetries present (total): 1

  ( 1  0  0)
  ( 0  1  0)
  ( 0  0  1)

144 k-points: 6 x 6 x 4 Monkhorst-Pack grid
144 k-points in the irreducible part of the Brillouin zone
       k-points in crystal coordinates                weights
   0:    -0.41666667   -0.41666667   -0.37500000          1/144
   1:    -0.41666667   -0.41666667   -0.12500000          1/144
   2:    -0.41666667   -0.41666667    0.12500000          1/144
   3:    -0.41666667   -0.41666667    0.37500000          1/144
   4:    -0.41666667   -0.25000000   -0.37500000          1/144
   5:    -0.41666667   -0.25000000   -0.12500000          1/144
   6:    -0.41666667   -0.25000000    0.12500000          1/144
   7:    -0.41666667   -0.25000000    0.37500000          1/144
   8:    -0.41666667   -0.08333333   -0.37500000          1/144
   9:    -0.41666667   -0.08333333   -0.12500000          1/144
          ...
 143:     0.41666667    0.41666667    0.37500000          1/144

Wave functions: Plane wave expansion
  Cutoff energy: 600.000 eV
  Number of coefficients (min, max): 9132, 9161
  Pulay-stress correction: 0.000000 eV/Ang^3 (de/decut=0.000000)
  Using FFTW library
  ScaLapack parameters: grid=1x1, blocksize=None
  Wavefunction extrapolation:
    Improved wavefunction reuse through dual PAW basis

  Fermi-Dirac: width=0.0010 eV

Eigensolver
   Davidson(niter=2, smin=None, normalize=True)

Densities:
  Coarse grid: 60*35*27 grid
  Fine grid: 120*70*54 grid
  Total Charge: 0.000000

Density mixing:
  Method: difference
  Backend: pulay
  Linear mixing parameter: 0.05
  Mixing with 5 old densities
  Damping of long wave oscillations: 50

Hamiltonian:
  XC and Coulomb potentials evaluated on a 120*70*54 grid
  Using the LDA Exchange-Correlation functional

Total number of cores used: 32
Parallelization over k-points: 16
Domain decomposition: 2 x 1 x 1

Number of atoms: 28
Number of atomic orbitals: 148
Number of bands in calculation: 112
Number of valence electrons: 180
Bands to converge: occupied

... initialized

Initializing position-dependent things.

Density initialized from atomic densities
Creating initial wave functions:
  112 bands from LCAO basis set

               O     O  P  O
            PO           OMn     O
                  O          MO
            O        Li O
             Mn  On          OP
         O         Li O
         Li     O P         O
       Li

Positions:
   0 O     -1.280122   -2.495595   -1.112331    ( 0.0000,  0.0000,  0.0000)
   1 O     -3.023238    2.918858    1.191723    ( 0.0000,  0.0000,  0.0000)
   2 O      1.997451    0.467212    1.441442    ( 0.0000,  0.0000,  0.0000)
   3 O      3.740343   -0.043905   -0.862614    ( 0.0000,  0.0000,  0.0000)
   4 O      1.997419    2.918835    1.441465    ( 0.0000,  0.0000,  0.0000)
   5 O      3.740372   -2.495531   -0.862587    ( 0.0000,  0.0000,  0.0000)
   6 O     -1.280154   -0.033891   -1.112309    ( 0.0000,  0.0000,  0.0000)
   7 O     -3.023210    0.467136    1.191750    ( 0.0000,  0.0000,  0.0000)
   8 O     -4.147405   -1.269737   -0.856207    ( 0.0000,  0.0000,  0.0000)
   9 O     -0.155894    1.692986    1.447725    ( 0.0000,  0.0000,  0.0000)
  10 O      4.864578    1.693016    1.185324    ( 0.0000,  0.0000,  0.0000)
  11 O      0.873163   -1.269706   -1.118625    ( 0.0000,  0.0000,  0.0000)
  12 Mn    -2.437108   -1.269902    0.302197    ( 0.0000,  0.0000,  1.0000)
  13 Mn    -1.866187    1.693156   -2.001927    ( 0.0000,  0.0000, -1.0000)
  14 Mn     3.154299    1.693181    0.026917    ( 0.0000,  0.0000, -1.0000)
  15 Mn     2.583444   -1.269877    2.331074    ( 0.0000,  0.0000,  1.0000)
  16 P     -0.543052   -1.269720   -1.734187    ( 0.0000,  0.0000,  0.0000)
  17 P     -3.760282    1.692974    0.569859    ( 0.0000,  0.0000,  0.0000)
  18 P      1.260300    1.693000    2.063344    ( 0.0000,  0.0000,  0.0000)
  19 P      4.477470   -1.269695   -0.240696    ( 0.0000,  0.0000,  0.0000)
  20 O     -0.544413   -1.269738    1.348523    ( 0.0000,  0.0000,  0.0000)
  21 O     -3.758895    1.692992   -0.955558    ( 0.0000,  0.0000,  0.0000)
  22 O      1.261690    1.693018   -1.019367    ( 0.0000,  0.0000,  0.0000)
  23 O      4.476045   -1.269713    1.284716    ( 0.0000,  0.0000,  0.0000)
  24 Li    -4.662027   -2.751322   -2.139440    ( 0.0000,  0.0000,  0.0000)
  25 Li     0.358703   -2.751277    0.164614    ( 0.0000,  0.0000,  0.0000)
  26 Li    -4.662011    0.211617   -2.139439    ( 0.0000,  0.0000,  0.0000)
  27 Li     0.358720    0.211628    0.164615    ( 0.0000,  0.0000,  0.0000)

Unit cell:
           periodic     x           y           z      points  spacing
  1. axis:    yes   10.041096    0.000054   -0.000022    60     0.1674
  2. axis:    yes    0.000032    5.925857    0.000001    35     0.1693
  3. axis:    yes   -0.000010    0.000001    4.608134    27     0.1707

  Lengths:  10.041096   5.925857   4.608134
  Angles:   89.999974  90.000250  89.999381

Effective grid spacing dv^(1/3) = 0.1691

                     log10-error:           total        iterations:
           time      wfs    density  force  energy       poisson  magmom
iter:   1  11:22:51                       -233.734954             +0.0000
iter:   2  11:23:27  -0.47  -0.95         -231.549767             +0.0039
iter:   3  11:24:04  -0.60  -1.00         -220.826622             +0.0041
iter:   4  11:24:40  -1.22  -1.31         -221.498251             +0.1731
iter:   5  11:25:17  -2.15  -1.37         -222.463787             +0.0990
iter:   6  11:25:53  -2.37  -1.38         -223.690330             +0.0217
iter:   7  11:26:29  -2.00  -1.55         -223.452056             +0.0309
iter:   8  11:27:06  -2.30  -1.95         -225.926583             +0.0000
iter:   9  11:27:42  -2.22  -2.07         -226.312779             -0.0067
iter:  10  11:28:18  -2.28  -2.13         -226.378363             -0.0017
iter:  11  11:28:55  -2.95  -2.28         -226.406054             -0.0004
iter:  12  11:29:31  -2.67  -2.34         -226.223172             +0.0002
iter:  13  11:30:07  -2.89  -2.45         -226.267984             -0.0001
iter:  14  11:30:43  -3.34  -2.64         -226.197547             -0.0000
iter:  15  11:31:20  -4.01  -2.68         -226.211422             -0.0000
iter:  16  11:31:56  -3.30  -2.70         -226.187766             +0.0000
iter:  17  11:32:32  -4.38  -2.77         -226.182751             -0.0000
iter:  18  11:33:09  -4.52  -2.88         -226.180624             +0.0000
iter:  19  11:33:45  -3.66  -2.93         -226.174282             +0.0000
iter:  20  11:34:21  -4.52  -3.34         -226.175181             +0.0000
iter:  21  11:34:58  -5.21  -3.43         -226.174463             +0.0000
iter:  22  11:35:34  -5.18  -3.46         -226.174177             +0.0000
iter:  23  11:36:10  -5.75  -3.52         -226.174094             +0.0000
iter:  24  11:36:47  -6.59  -3.69         -226.174036             +0.0000
iter:  25  11:37:23  -5.28  -3.73         -226.173918             +0.0000
iter:  26  11:37:59  -5.95  -3.90         -226.173948             +0.0000
iter:  27  11:38:35  -6.96  -3.96         -226.173943             -0.0000
iter:  28  11:39:12  -6.37  -4.00         -226.173915             -0.0000
iter:  29  11:39:48  -6.77  -4.11         -226.173932             -0.0000
iter:  30  11:40:24  -6.89  -4.27         -226.173905             -0.0000
iter:  31  11:41:01  -6.48  -4.37         -226.173882             -0.0000
iter:  32  11:41:37  -7.05  -4.40         -226.173882             -0.0000
iter:  33  11:42:13  -6.86  -4.51         -226.173881             -0.0000
iter:  34  11:42:59  -7.77  -4.68         -226.173881             -0.0000
iter:  35  11:43:44  -8.10  -4.94    -2.78-226.173881             -0.0000
iter:  36  11:44:29  -7.65  -5.06    -2.76-226.173880             -0.0000
iter:  37  11:45:15  -8.91  -5.23    -3.29-226.173880             -0.0000
iter:  38  11:46:00  -8.82  -5.32    -3.28-226.173880             -0.0000
iter:  39  11:46:46  -9.35  -5.42    -3.15-226.173880             -0.0000
iter:  40  11:47:31  -9.64  -5.68    -3.82-226.173880             -0.0000
iter:  41  11:48:16  -9.27  -5.80    -3.36-226.173880             -0.0000
iter:  42  11:49:02 -10.42  -5.98    -3.98-226.173880             -0.0000
iter:  43  11:49:47 -10.97  -6.09    -4.23-226.173880             -0.0000
iter:  44  11:50:33 -10.48  -6.16    -4.27-226.173880             -0.0000
iter:  45  11:51:18 -11.25  -6.27    -4.15-226.173880             -0.0000
iter:  46  11:52:03 -11.26  -6.34    -4.22-226.173880             -0.0000
iter:  47  11:52:49 -11.25  -6.45    -4.37-226.173880             -0.0000
iter:  48  11:53:34 -11.55  -6.53    -4.83-226.173880             -0.0000
iter:  49  11:54:20 -11.24  -6.58    -4.16-226.173880             -0.0000
iter:  50  11:55:05 -11.74  -6.93    -4.82-226.173880             -0.0000
iter:  51  11:55:50 -11.86  -7.08    -4.91-226.173880             -0.0000
iter:  52  11:56:36 -11.89  -7.15    -4.65-226.173880             -0.0000
iter:  53  11:57:21 -12.20  -7.21    -4.80-226.173880             -0.0000
iter:  54  11:58:06 -13.65  -7.35    -5.48-226.173880             -0.0000
iter:  55  11:58:52 -13.62  -7.40    -5.67-226.173880             -0.0000
iter:  56  11:59:37 -13.17  -7.46    -5.43-226.173880             -0.0000
iter:  57  12:00:22 -13.70  -7.50    -5.68-226.173880             -0.0000
iter:  58  12:01:08 -14.34  -7.57    -5.96-226.173880             -0.0000
iter:  59  12:01:53 -13.40  -7.62    -5.09-226.173880             -0.0000
iter:  60  12:02:38 -14.03  -7.93    -5.95-226.173880             -0.0000
iter:  61  12:03:24 -15.00  -8.04    -6.21-226.173880             -0.0000

Converged after 61 iterations.

Dipole moment: (18.326010, -2.817565, -4.524058) |e|*Ang

Total magnetic moment: (0.000000, 0.000000, -0.000000)
Local magnetic moments:
   0 O  ( 0.000000,  0.000000, -0.001663)
   1 O  ( 0.000000,  0.000000,  0.002048)
   2 O  ( 0.000000,  0.000000,  0.001828)
   3 O  ( 0.000000,  0.000000, -0.001798)
   4 O  ( 0.000000,  0.000000,  0.001816)
   5 O  ( 0.000000,  0.000000, -0.001796)
   6 O  ( 0.000000,  0.000000, -0.002222)
   7 O  ( 0.000000,  0.000000,  0.001781)
   8 O  ( 0.000000,  0.000000,  0.031096)
   9 O  ( 0.000000,  0.000000, -0.031106)
  10 O  ( 0.000000,  0.000000, -0.031115)
  11 O  ( 0.000000,  0.000000,  0.030852)
  12 Mn ( 0.000000,  0.000000,  4.395422)
  13 Mn ( 0.000000,  0.000000, -4.393905)
  14 Mn ( 0.000000,  0.000000, -4.395758)
  15 Mn ( 0.000000,  0.000000,  4.395619)
  16 P  ( 0.000000,  0.000000,  0.000469)
  17 P  ( 0.000000,  0.000000, -0.000880)
  18 P  ( 0.000000,  0.000000, -0.000891)
  19 P  ( 0.000000,  0.000000,  0.000862)
  20 O  ( 0.000000,  0.000000,  0.028258)
  21 O  ( 0.000000,  0.000000, -0.028465)
  22 O  ( 0.000000,  0.000000, -0.028419)
  23 O  ( 0.000000,  0.000000,  0.028441)
  24 Li ( 0.000000,  0.000000, -0.000001)
  25 Li ( 0.000000,  0.000000, -0.000002)
  26 Li ( 0.000000,  0.000000, -0.000001)
  27 Li ( 0.000000,  0.000000, -0.000032)

Energy contributions relative to reference atoms: (reference = -196157.275402)

Kinetic:       +277.120444
Potential:     -240.576656
External:        +0.000000
XC:            -264.607002
Entropy (-ST):   -0.000000
Local:           +1.889334
Free energy:   -226.173880
Extrapolated:  -226.173880

Spin contamination: 9.453982 electrons
Showing only first 2 kpts
                      Up                     Down
 Kpt  Band  Eigenvalues  Occupancy  Eigenvalues  Occupancy
  0    88      6.52811    0.00694      6.53614    0.00694
  0    89      6.56149    0.00694      6.57097    0.00694
  0    90      8.42995    0.00000      8.42437    0.00000
  0    91      8.45375    0.00000      8.44632    0.00000

  1    88      6.56652    0.00694      6.57466    0.00694
  1    89      6.59330    0.00694      6.60281    0.00694
  1    90      8.38631    0.00000      8.37948    0.00000
  1    91      8.41017    0.00000      8.40263    0.00000

Fermi level: 7.43605

Gap: 1.689 eV
Transition (v -> c):
  (s=1, k=93, n=89, [0.08, 0.42, -0.12]) -> (s=1, k=86, n=90, [0.08, 0.08, 0.12])
Writing to born-0.01-6y+.gpw (mode='all')