User:   madkru@i013.nifl.fysik.dtu.dk
Date:   Mon Mar 22 18:34:41 2021
Arch:   x86_64
Pid:    27943
Python: 3.7.4
gpaw:   /home/niflheim/madkru/venv_folder/gpaw/gpaw (d0d1ca1c71)
_gpaw:  /home/niflheim/madkru/venv_folder/gpaw/build/lib.linux-x86_64-ivybridge-3.7/
        _gpaw.cpython-37m-x86_64-linux-gnu.so (4fd39e8b1e)
ase:    /home/niflheim/madkru/venv_folder/ase/ase (version 3.21.0b1-7e6c206a91)
numpy:  /home/niflheim/madkru/venv_folder/lib/python3.7/site-packages/numpy (version 1.19.4)
scipy:  /home/niflheim/madkru/venv_folder/lib/python3.7/site-packages/scipy (version 1.5.4)
units:  Angstrom and eV
cores: 32
OMP_NUM_THREADS: 1

Input parameters:
  convergence: {bands: occupied,
                density: 0.0001,
                eigenstates: 4e-08,
                energy: 0.0005,
                forces: 1e-06}
  kpts: [6 6 4]
  mode: {ecut: 600.0,
         gammacentered: False,
         name: pw}
  occupations: {fixmagmom: False,
                name: fermi-dirac,
                width: 0.001}
  symmetry: {point_group: False,
             time_reversal: False}

System changes: positions, numbers, cell, pbc, initial_charges, initial_magmoms

Initialize ...

O-setup:
  name: Oxygen
  id: 9b9d51c344dea68c822856295a461509
  Z: 8.0
  valence: 6
  core: 2
  charge: 0.0
  file: /home/modules/software/GPAW-setups/0.9.20000/O.LDA.gz
  compensation charges: gauss, rc=0.21, lmax=2
  cutoffs: 1.17(filt), 0.83(core),
  valence states:
                energy  radius
    2s(2.00)   -23.752   0.688
    2p(4.00)    -9.195   0.598
    *s           3.459   0.688
    *p          18.016   0.598
    *d           0.000   0.619

  Using partial waves for O as LCAO basis

Mn-setup:
  name: Manganese
  id: 0d715a8018be061a6e9ea6f2d364ac92
  Z: 25.0
  valence: 15
  core: 10
  charge: 0.0
  file: /home/modules/software/GPAW-setups/0.9.20000/Mn.LDA.gz
  compensation charges: gauss, rc=0.38, lmax=2
  cutoffs: 2.14(filt), 0.86(core),
  valence states:
                energy  radius
    3s(2.00)   -85.387   1.275
    4s(2.00)    -5.282   1.275
    3p(6.00)   -54.493   1.281
    4p(0.00)    -1.471   1.281
    3d(5.00)    -7.009   1.138
    *d          20.203   1.138

[...]

P-setup:
  name: Phosphorus
  id: a5561c299094968922a179ab894d2e2d
  Z: 15.0
  valence: 5
  core: 10
  charge: 0.0
  file: /home/modules/software/GPAW-setups/0.9.20000/P.LDA.gz
  compensation charges: gauss, rc=0.30, lmax=2
  cutoffs: 1.69(filt), 1.81(core),
  valence states:
                energy  radius
    3s(2.00)   -14.015   0.953
    3p(3.00)    -5.596   0.953
    *s          13.197   0.953
    *p          21.615   0.953
    *d           0.000   0.953

[...]

Li-setup:
  name: Lithium
  id: b73562207f97a71b6967473b66fe8b65
  Z: 3.0
  valence: 1
  core: 2
  charge: 0.0
  file: /home/modules/software/GPAW-setups/0.9.20000/Li.LDA.gz
  compensation charges: gauss, rc=0.33, lmax=2
  cutoffs: 1.91(filt), 2.55(core),
  valence states:
                energy  radius
    2s(1.00)    -2.874   1.058
    2p(0.00)    -1.126   1.058
    *s          24.338   1.058

  Using partial waves for Li as LCAO basis

Reference energy: -196157.275402

Spin-polarized calculation.
Magnetic moment: 0.000000

Convergence criteria:
  Maximum total energy change: 0.0005 eV / electron
  Maximum integral of absolute density change: 0.0001 electrons
  Maximum integral of absolute eigenstate change: 4e-08 eV^2
  Maximum change in atomic force: 1e-06 eV / Ang
  Maximum number of iterations: 333

Symmetries present (total): 1

  ( 1  0  0)
  ( 0  1  0)
  ( 0  0  1)

144 k-points: 6 x 6 x 4 Monkhorst-Pack grid
144 k-points in the irreducible part of the Brillouin zone
       k-points in crystal coordinates                weights
   0:    -0.41666667   -0.41666667   -0.37500000          1/144
   1:    -0.41666667   -0.41666667   -0.12500000          1/144
   2:    -0.41666667   -0.41666667    0.12500000          1/144
   3:    -0.41666667   -0.41666667    0.37500000          1/144
   4:    -0.41666667   -0.25000000   -0.37500000          1/144
   5:    -0.41666667   -0.25000000   -0.12500000          1/144
   6:    -0.41666667   -0.25000000    0.12500000          1/144
   7:    -0.41666667   -0.25000000    0.37500000          1/144
   8:    -0.41666667   -0.08333333   -0.37500000          1/144
   9:    -0.41666667   -0.08333333   -0.12500000          1/144
          ...
 143:     0.41666667    0.41666667    0.37500000          1/144

Wave functions: Plane wave expansion
  Cutoff energy: 600.000 eV
  Number of coefficients (min, max): 9132, 9161
  Pulay-stress correction: 0.000000 eV/Ang^3 (de/decut=0.000000)
  Using FFTW library
  ScaLapack parameters: grid=1x1, blocksize=None
  Wavefunction extrapolation:
    Improved wavefunction reuse through dual PAW basis

  Fermi-Dirac: width=0.0010 eV

Eigensolver
   Davidson(niter=2, smin=None, normalize=True)

Densities:
  Coarse grid: 60*35*27 grid
  Fine grid: 120*70*54 grid
  Total Charge: 0.000000

Density mixing:
  Method: difference
  Backend: pulay
  Linear mixing parameter: 0.05
  Mixing with 5 old densities
  Damping of long wave oscillations: 50

Hamiltonian:
  XC and Coulomb potentials evaluated on a 120*70*54 grid
  Using the LDA Exchange-Correlation functional

Total number of cores used: 32
Parallelization over k-points: 16
Domain decomposition: 2 x 1 x 1

Number of atoms: 28
Number of atomic orbitals: 148
Number of bands in calculation: 112
Number of valence electrons: 180
Bands to converge: occupied

... initialized

Initializing position-dependent things.

Density initialized from atomic densities
Creating initial wave functions:
  112 bands from LCAO basis set

               O     O  P  O
            PO           OMn     O
                  O          MO
            O        Li O
             Mn  Mn          OP
         O       O Li O
         Li     O P         O
       Li

Positions:
   0 O     -1.280122   -2.495595   -1.112331    ( 0.0000,  0.0000,  0.0000)
   1 O     -3.023238    2.918858    1.191723    ( 0.0000,  0.0000,  0.0000)
   2 O      1.997451    0.467212    1.441442    ( 0.0000,  0.0000,  0.0000)
   3 O      3.740343   -0.043905   -0.862614    ( 0.0000,  0.0000,  0.0000)
   4 O      1.997419    2.918835    1.441465    ( 0.0000,  0.0000,  0.0000)
   5 O      3.740372   -2.495531   -0.862587    ( 0.0000,  0.0000,  0.0000)
   6 O     -1.280154   -0.043891   -1.112309    ( 0.0000,  0.0000,  0.0000)
   7 O     -3.023210    0.467136    1.191750    ( 0.0000,  0.0000,  0.0000)
   8 O     -4.157405   -1.269737   -0.856207    ( 0.0000,  0.0000,  0.0000)
   9 O     -0.155894    1.692986    1.447725    ( 0.0000,  0.0000,  0.0000)
  10 O      4.864578    1.693016    1.185324    ( 0.0000,  0.0000,  0.0000)
  11 O      0.873163   -1.269706   -1.118625    ( 0.0000,  0.0000,  0.0000)
  12 Mn    -2.437108   -1.269902    0.302197    ( 0.0000,  0.0000,  1.0000)
  13 Mn    -1.866187    1.693156   -2.001927    ( 0.0000,  0.0000, -1.0000)
  14 Mn     3.154299    1.693181    0.026917    ( 0.0000,  0.0000, -1.0000)
  15 Mn     2.583444   -1.269877    2.331074    ( 0.0000,  0.0000,  1.0000)
  16 P     -0.543052   -1.269720   -1.734187    ( 0.0000,  0.0000,  0.0000)
  17 P     -3.760282    1.692974    0.569859    ( 0.0000,  0.0000,  0.0000)
  18 P      1.260300    1.693000    2.063344    ( 0.0000,  0.0000,  0.0000)
  19 P      4.477470   -1.269695   -0.240696    ( 0.0000,  0.0000,  0.0000)
  20 O     -0.544413   -1.269738    1.348523    ( 0.0000,  0.0000,  0.0000)
  21 O     -3.758895    1.692992   -0.955558    ( 0.0000,  0.0000,  0.0000)
  22 O      1.261690    1.693018   -1.019367    ( 0.0000,  0.0000,  0.0000)
  23 O      4.476045   -1.269713    1.284716    ( 0.0000,  0.0000,  0.0000)
  24 Li    -4.662027   -2.751322   -2.139440    ( 0.0000,  0.0000,  0.0000)
  25 Li     0.358703   -2.751277    0.164614    ( 0.0000,  0.0000,  0.0000)
  26 Li    -4.662011    0.211617   -2.139439    ( 0.0000,  0.0000,  0.0000)
  27 Li     0.358720    0.211628    0.164615    ( 0.0000,  0.0000,  0.0000)

Unit cell:
           periodic     x           y           z      points  spacing
  1. axis:    yes   10.041096    0.000054   -0.000022    60     0.1674
  2. axis:    yes    0.000032    5.925857    0.000001    35     0.1693
  3. axis:    yes   -0.000010    0.000001    4.608134    27     0.1707

  Lengths:  10.041096   5.925857   4.608134
  Angles:   89.999974  90.000250  89.999381

Effective grid spacing dv^(1/3) = 0.1691

                     log10-error:           total        iterations:
           time      wfs    density  force  energy       poisson  magmom
iter:   1  18:37:48                       -233.729488             +0.0000
iter:   2  18:38:24  -0.47  -0.95         -231.548747             +0.0004
iter:   3  18:39:00  -0.60  -1.00         -220.798526             +0.0004
iter:   4  18:39:36  -1.21  -1.31         -221.093024             +0.4348
iter:   5  18:40:13  -2.14  -1.39         -222.658541             +0.2581
iter:   6  18:40:49  -2.08  -1.38         -225.023324             -0.0434
iter:   7  18:41:25  -2.14  -1.46         -223.841865             -0.9780
iter:   8  18:42:01  -2.36  -1.59         -225.354030             -1.6171
iter:   9  18:42:38  -2.19  -1.83         -226.483971             -0.7002
iter:  10  18:43:14  -2.88  -2.03         -226.484815             -0.1877
iter:  11  18:43:50  -2.61  -2.05         -226.458671             -0.0179
iter:  12  18:44:26  -2.45  -2.20         -226.336034             -0.0416
iter:  13  18:45:03  -2.51  -2.41         -226.236064             -0.0065
iter:  14  18:45:39  -3.24  -2.56         -226.216034             -0.0086
iter:  15  18:46:15  -3.12  -2.63         -226.185650             -0.0031
iter:  16  18:46:51  -3.67  -2.78         -226.177556             -0.0014
iter:  17  18:47:27  -4.14  -2.85         -226.176265             -0.0005
iter:  18  18:48:04  -4.35  -2.89         -226.177649             -0.0001
iter:  19  18:48:40  -4.30  -2.96         -226.176689             -0.0001
iter:  20  18:49:16  -4.15  -3.18         -226.181105             -0.0000
iter:  21  18:49:52  -4.17  -3.24         -226.174224             -0.0000
iter:  22  18:50:29  -4.82  -3.42         -226.173666             -0.0000
iter:  23  18:51:05  -4.88  -3.51         -226.173395             -0.0000
iter:  24  18:51:41  -5.27  -3.76         -226.173424             -0.0000
iter:  25  18:52:17  -6.40  -3.80         -226.173380             -0.0000
iter:  26  18:52:53  -6.44  -3.90         -226.173385             -0.0000
iter:  27  18:53:30  -6.28  -3.96         -226.173395             +0.0000
iter:  28  18:54:06  -5.85  -4.08         -226.173345             +0.0000
iter:  29  18:54:42  -6.61  -4.18         -226.173353             +0.0000
iter:  30  18:55:18  -6.23  -4.10         -226.173348             +0.0000
iter:  31  18:55:55  -6.62  -4.32         -226.173352             +0.0000
iter:  32  18:56:31  -6.26  -4.38         -226.173344             +0.0000
iter:  33  18:57:16  -7.49  -4.37         -226.173343             +0.0000
iter:  34  18:57:52  -6.83  -4.47         -226.173338             -0.0000
iter:  35  18:58:38  -7.89  -4.95    -2.36-226.173337             +0.0000
iter:  36  18:59:23  -8.73  -5.12    -3.21-226.173337             +0.0000
iter:  37  19:00:09  -9.06  -5.16    -3.36-226.173337             -0.0000
iter:  38  19:00:54  -8.62  -5.22    -2.95-226.173337             -0.0000
iter:  39  19:01:40  -9.42  -5.30    -3.60-226.173337             -0.0000
iter:  40  19:02:25  -9.58  -5.35    -3.17-226.173337             -0.0000
iter:  41  19:03:10  -9.40  -5.47    -3.60-226.173337             -0.0000
iter:  42  19:03:56  -9.05  -5.54    -3.51-226.173337             -0.0000
iter:  43  19:04:41  -9.96  -5.69    -4.02-226.173337             -0.0000
iter:  44  19:05:27 -10.07  -5.74    -3.82-226.173337             -0.0000
iter:  45  19:06:12 -10.53  -5.83    -4.04-226.173337             -0.0000
iter:  46  19:06:58 -10.83  -5.93    -4.19-226.173337             -0.0000
iter:  47  19:07:43 -10.79  -5.98    -3.83-226.173337             -0.0000
iter:  48  19:08:29 -10.74  -6.22    -4.06-226.173337             -0.0000
iter:  49  19:09:14 -10.64  -6.34    -4.07-226.173337             -0.0000
iter:  50  19:09:59 -11.05  -6.44    -4.23-226.173337             -0.0000
iter:  51  19:10:45 -10.66  -6.52    -4.24-226.173337             -0.0000
iter:  52  19:11:30 -11.83  -6.74    -4.92-226.173337             -0.0000
iter:  53  19:12:15 -11.17  -6.75    -4.35-226.173337             -0.0000
iter:  54  19:13:01 -12.04  -7.02    -4.75-226.173337             -0.0000
iter:  55  19:13:46 -13.34  -7.29    -5.64-226.173337             -0.0000
iter:  56  19:14:32 -12.30  -7.34    -5.16-226.173337             -0.0000
iter:  57  19:15:17 -12.94  -7.44    -5.44-226.173337             -0.0000
iter:  58  19:16:03 -13.48  -7.46    -5.83-226.173337             -0.0000
iter:  59  19:16:48 -13.71  -7.44    -5.54-226.173337             -0.0000
iter:  60  19:17:33 -13.58  -7.48    -5.56-226.173337             -0.0000
iter:  61  19:18:18 -13.42  -7.55    -5.39-226.173337             -0.0000
iter:  62  19:19:04 -13.38  -7.64    -5.49-226.173337             -0.0000
iter:  63  19:19:49 -13.96  -7.72    -5.74-226.173337             -0.0000
iter:  64  19:20:34 -13.59  -7.86    -5.65-226.173337             -0.0000
iter:  65  19:21:20 -14.70  -8.12    -6.38-226.173337             -0.0000

Converged after 65 iterations.

Dipole moment: (18.334795, -2.306085, -4.528286) |e|*Ang

Total magnetic moment: (0.000000, 0.000000, -0.000000)
Local magnetic moments:
   0 O  ( 0.000000,  0.000000, -0.001789)
   1 O  ( 0.000000,  0.000000,  0.001797)
   2 O  ( 0.000000,  0.000000,  0.001806)
   3 O  ( 0.000000,  0.000000, -0.001910)
   4 O  ( 0.000000,  0.000000,  0.001801)
   5 O  ( 0.000000,  0.000000, -0.001905)
   6 O  ( 0.000000,  0.000000, -0.001794)
   7 O  ( 0.000000,  0.000000,  0.001803)
   8 O  ( 0.000000,  0.000000,  0.030739)
   9 O  ( 0.000000,  0.000000, -0.031185)
  10 O  ( 0.000000,  0.000000, -0.031012)
  11 O  ( 0.000000,  0.000000,  0.031003)
  12 Mn ( 0.000000,  0.000000,  4.397035)
  13 Mn ( 0.000000,  0.000000, -4.395913)
  14 Mn ( 0.000000,  0.000000, -4.395734)
  15 Mn ( 0.000000,  0.000000,  4.395734)
  16 P  ( 0.000000,  0.000000,  0.000868)
  17 P  ( 0.000000,  0.000000, -0.000903)
  18 P  ( 0.000000,  0.000000, -0.000854)
  19 P  ( 0.000000,  0.000000,  0.000691)
  20 O  ( 0.000000,  0.000000,  0.028617)
  21 O  ( 0.000000,  0.000000, -0.028434)
  22 O  ( 0.000000,  0.000000, -0.028420)
  23 O  ( 0.000000,  0.000000,  0.028467)
  24 Li ( 0.000000,  0.000000, -0.000033)
  25 Li ( 0.000000,  0.000000,  0.000000)
  26 Li ( 0.000000,  0.000000, -0.000033)
  27 Li ( 0.000000,  0.000000,  0.000000)

Energy contributions relative to reference atoms: (reference = -196157.275402)

Kinetic:       +278.262413
Potential:     -241.462980
External:        +0.000000
XC:            -264.860103
Entropy (-ST):   -0.000000
Local:           +1.887333
Free energy:   -226.173337
Extrapolated:  -226.173337

Spin contamination: 9.455528 electrons
Showing only first 2 kpts
                      Up                     Down
 Kpt  Band  Eigenvalues  Occupancy  Eigenvalues  Occupancy
  0    88      6.51105    0.00694      6.52834    0.00694
  0    89      6.56181    0.00694      6.56687    0.00694
  0    90      8.42483    0.00000      8.41675    0.00000
  0    91      8.45072    0.00000      8.45201    0.00000

  1    88      6.54813    0.00694      6.56613    0.00694
  1    89      6.59411    0.00694      6.59953    0.00694
  1    90      8.38105    0.00000      8.37217    0.00000
  1    91      8.40766    0.00000      8.40829    0.00000

Fermi level: 7.48288

Gap: 1.690 eV
Transition (v -> c):
  (s=1, k=49, n=89, [-0.08, -0.42, -0.12]) -> (s=1, k=86, n=90, [0.08, 0.08, 0.12])
Writing to born-0.01-8x-.gpw (mode='all')