User:   madkru@c097.nifl.fysik.dtu.dk
Date:   Mon Jul  4 18:59:13 2022
Arch:   x86_64
Pid:    261120
Python: 3.8.6
gpaw:   /home/niflheim/madkru/new_venv/gpaw/gpaw (1f0dfc9eae)
_gpaw:  /home/niflheim/madkru/new_venv/gpaw/build/lib.linux-x86_64-skylake-3.8/
        _gpaw.cpython-38-x86_64-linux-gnu.so (c1e45bfab3)
ase:    /home/niflheim/madkru/new_venv/ase/ase (version 3.23.0b1-ca38c75a67)
numpy:  /home/modules/software/SciPy-bundle/2020.11-foss-2020b/lib/python3.8/site-packages/numpy (version 1.19.4)
scipy:  /home/modules/software/SciPy-bundle/2020.11-foss-2020b/lib/python3.8/site-packages/scipy (version 1.5.4)
units:  Angstrom and eV
cores: 40
OpenMP: False
OMP_NUM_THREADS: 1

Input parameters:
  convergence: {bands: occupied,
                density: 0.0001,
                eigenstates: 4e-08,
                energy: 0.0005,
                forces: 0.0001}
  kpts: {gamma: True,
         size: [12, 12, 12]}
  mode: {ecut: 600.0,
         gammacentered: False,
         name: pw}
  occupations: {fixmagmom: False,
                name: fermi-dirac,
                width: 0.001}
  symmetry: {point_group: False,
             time_reversal: False}

System changes: positions, numbers, cell, pbc, initial_charges, initial_magmoms

Initialize ...

O-setup:
  name: Oxygen
  id: 9b9d51c344dea68c822856295a461509
  Z: 8.0
  valence: 6
  core: 2
  charge: 0.0
  file: /home/modules/software/GPAW-setups/0.9.20000/O.LDA.gz
  compensation charges: gauss, rc=0.21, lmax=2
  cutoffs: 1.17(filt), 0.83(core),
  valence states:
                energy  radius
    2s(2.00)   -23.752   0.688
    2p(4.00)    -9.195   0.598
    *s           3.459   0.688
    *p          18.016   0.598
    *d           0.000   0.619

  Using partial waves for O as LCAO basis

Cr-setup:
  name: Chromium
  id: 444e8044bc0f91048286c984738d87f5
  Z: 24.0
  valence: 6
  core: 18
  charge: 0.0
  file: /home/modules/software/GPAW-setups/0.9.20000/Cr.LDA.gz
  compensation charges: gauss, rc=0.35, lmax=2
  cutoffs: 2.14(filt), 3.04(core),
  valence states:
                energy  radius
    4s(1.00)    -4.191   1.164
    4p(0.00)    -1.079   1.217
    3d(5.00)    -3.128   1.111
    *s          23.021   1.164
    *p          26.132   1.217
    *d          24.083   1.111

  Using partial waves for Cr as LCAO basis

Reference energy: -126274.181857

Spin-polarized calculation.
Magnetic moment: 0.000000

Convergence criteria:
  Maximum total energy change: 0.0005 eV / electron
  Maximum integral of absolute density change: 0.0001 electrons
  Maximum integral of absolute eigenstate change: 4e-08 eV^2
  Maximum change in atomic force: 0.0001 eV / Ang
  Maximum number of iterations: 333

Symmetries present (total): 1

  ( 1  0  0)
  ( 0  1  0)
  ( 0  0  1)

1728 k-points: 12 x 12 x 12 Monkhorst-Pack grid + [1/24,1/24,1/24]
1728 k-points in the irreducible part of the Brillouin zone
       k-points in crystal coordinates                weights
   0:    -0.41666667   -0.41666667   -0.41666667          1/1728
   1:    -0.41666667   -0.41666667   -0.33333333          1/1728
   2:    -0.41666667   -0.41666667   -0.25000000          1/1728
   3:    -0.41666667   -0.41666667   -0.16666667          1/1728
   4:    -0.41666667   -0.41666667   -0.08333333          1/1728
   5:    -0.41666667   -0.41666667   -0.00000000          1/1728
   6:    -0.41666667   -0.41666667    0.08333333          1/1728
   7:    -0.41666667   -0.41666667    0.16666667          1/1728
   8:    -0.41666667   -0.41666667    0.25000000          1/1728
   9:    -0.41666667   -0.41666667    0.33333333          1/1728
          ...
1727:     0.50000000    0.50000000    0.50000000          1/1728

Wave functions: Plane wave expansion
  Cutoff energy: 600.000 eV
  Number of coefficients (min, max): 2896, 2946
  Pulay-stress correction: 0.000000 eV/Ang^3 (de/decut=0.000000)
  Using FFTW library
  ScaLapack parameters: grid=1x1, blocksize=None
  Wavefunction extrapolation:
    Improved wavefunction reuse through dual PAW basis

Occupation numbers: Fermi-Dirac: width=0.0010 eV

Eigensolver
   Davidson(niter=2)

Densities:
  Coarse grid: 32*32*32 grid
  Fine grid: 64*64*64 grid
  Total Charge: 0.000000

Density mixing:
  Method: difference
  Backend: pulay
  Linear mixing parameter: 0.05
  Mixing with 5 old densities
  Damping of long wave oscillations: 50

Hamiltonian:
  XC and Coulomb potentials evaluated on a 64*64*64 grid
  Using the LDA Exchange-Correlation functional
  External potential:
    <gpaw.external.NoExternalPotential object at 0x2b302f91a8b0>

Total number of cores used: 40
Parallelization over k-points: 40

Number of atoms: 10
Number of atomic orbitals: 60
Number of bands in calculation: 40
Number of valence electrons: 60
Bands to converge: occupied

... initialized

Initializing position-dependent things.

Density initialized from atomic densities
Creating initial wave functions:
  40 bands from LCAO basis set

            Cr

            Cr
           O
         O      O

        O      O
             O
            Cr

            Cr

Positions:
   0 O     -0.760209   -1.389250    1.148641    ( 0.0000,  0.0000,  0.0000)
   1 O     -1.582607   -0.036807   -1.147820    ( 0.0000,  0.0000,  0.0000)
   2 O     -0.823830    1.352257    1.148121    ( 0.0000,  0.0000,  0.0000)
   3 O      0.823830   -1.352257   -1.158121    ( 0.0000,  0.0000,  0.0000)
   4 Cr    -0.000004    0.000260   -4.693226    ( 0.0000,  0.0000,  2.0000)
   5 Cr    -0.000004    0.000111   -2.195940    ( 0.0000,  0.0000, -2.0000)
   6 Cr     0.000004   -0.000260    4.693226    ( 0.0000,  0.0000, -2.0000)
   7 Cr     0.000004   -0.000111    2.195940    ( 0.0000,  0.0000,  2.0000)
   8 O      1.582607    0.036807    1.147820    ( 0.0000,  0.0000,  0.0000)
   9 O      0.760209    1.389250   -1.148641    ( 0.0000,  0.0000,  0.0000)

Unit cell:
           periodic     x           y           z      points  spacing
  1. axis:    yes    2.342815    1.352071    4.592704    32     0.1216
  2. axis:    yes   -2.342815    1.352071    4.592704    32     0.1216
  3. axis:    yes    0.000000   -2.704886    4.592923    32     0.1216

  Lengths:   5.330085   5.330085   5.330230
  Angles:   52.139511  52.139510  52.149782

Effective grid spacing dv^(1/3) = 0.1386

                     log10-error:           total        iterations:
           time      wfs    density  force  energy       poisson  magmom
iter:   1  19:06:43                       -100.567009             -0.0000
iter:   2  19:06:57  -0.70  -1.01          -99.836699             +0.0000
iter:   3  19:07:11  -0.13  -1.05          -97.281133             -0.0000
iter:   4  19:07:25  -1.16  -1.41          -97.358355             -0.0000
iter:   5  19:07:39  -1.15  -1.36          -97.357501             -0.0000
iter:   6  19:07:54  -0.76  -1.51          -96.977469             -0.0000
iter:   7  19:08:08  -1.59  -1.87          -96.869498             -0.0000
iter:   8  19:08:22  -1.77  -2.02          -96.844827             -0.0000
iter:   9  19:08:36  -1.93  -2.36          -96.843767             -0.0000
iter:  10  19:08:50  -2.68  -2.49          -96.837608             -0.0000
iter:  11  19:09:04  -2.74  -2.85          -96.846561             -0.0000
iter:  12  19:09:18  -3.15  -2.61          -96.845000             -0.0000
iter:  13  19:09:32  -2.73  -2.64          -96.838217             -0.0000
iter:  14  19:09:46  -3.41  -3.07          -96.838704             -0.0000
iter:  15  19:10:00  -3.77  -3.15          -96.838938             -0.0000
iter:  16  19:10:14  -3.92  -3.15          -96.839434             -0.0000
iter:  17  19:10:28  -3.99  -3.11          -96.839561             -0.0000
iter:  18  19:10:42  -4.17  -3.06          -96.839678             -0.0000
iter:  19  19:10:56  -4.30  -3.05          -96.839731             -0.0000
iter:  20  19:11:10  -4.27  -3.04          -96.839641             -0.0000
iter:  21  19:11:24  -4.14  -3.08          -96.839523             -0.0000
iter:  22  19:11:38  -4.53  -3.46          -96.839594             -0.0000
iter:  23  19:11:52  -4.33  -3.47          -96.839636             -0.0000
iter:  24  19:12:06  -4.58  -3.52          -96.839756             -0.0000
iter:  25  19:12:20  -4.76  -3.49          -96.839834             -0.0000
iter:  26  19:12:34  -4.93  -3.39          -96.839932             -0.0000
iter:  27  19:12:48  -4.52  -3.34          -96.839656             -0.0000
iter:  28  19:13:02  -4.80  -3.63          -96.839650             -0.0000
iter:  29  19:13:16  -4.60  -3.65          -96.839710             -0.0000
iter:  30  19:13:30  -4.85  -3.61          -96.839618             -0.0000
iter:  31  19:13:44  -5.13  -4.01          -96.839626             +0.0000
iter:  32  19:13:58  -5.29  -4.04          -96.839635             +0.0000
iter:  33  19:14:12  -5.55  -4.09          -96.839631             +0.0000
iter:  34  19:14:26  -5.86  -4.23          -96.839632             +0.0000
iter:  35  19:14:40  -6.07  -4.33          -96.839633             +0.0000
iter:  36  19:14:54  -6.20  -4.35          -96.839634             +0.0000
iter:  37  19:15:08  -6.27  -4.40          -96.839634             +0.0000
iter:  38  19:15:22  -6.38  -4.75          -96.839635             -0.0000
iter:  39  19:15:36  -6.55  -4.82          -96.839636             -0.0000
iter:  40  19:15:50  -6.62  -4.83          -96.839636             +0.0000
iter:  41  19:16:04  -6.65  -4.85          -96.839636             +0.0000
iter:  42  19:16:18  -6.68  -4.93          -96.839637             +0.0000
iter:  43  19:16:32  -6.82  -5.06          -96.839637             +0.0000
iter:  44  19:16:46  -6.85  -5.09          -96.839637             +0.0000
iter:  45  19:17:00  -6.98  -5.10          -96.839637             -0.0000
iter:  46  19:17:14  -7.12  -5.24          -96.839637             +0.0000
iter:  47  19:17:28  -7.30  -5.31          -96.839637             +0.0000
iter:  48  19:17:45  -7.43  -5.43          -96.839637             +0.0000
iter:  49  19:18:01  -7.52  -5.62    -4.17 -96.839638             +0.0000

Converged after 49 iterations.

Dipole moment: (-0.015336, -0.007052, -0.031220) |e|*Ang

Total magnetic moment: (0.000000, 0.000000, 0.000000)
Local magnetic moments:
   0 O  ( 0.000000,  0.000000, -0.000229)
   1 O  ( 0.000000,  0.000000, -0.000163)
   2 O  ( 0.000000,  0.000000, -0.000088)
   3 O  ( 0.000000,  0.000000,  0.000344)
   4 Cr ( 0.000000,  0.000000,  2.210998)
   5 Cr ( 0.000000,  0.000000, -2.208444)
   6 Cr ( 0.000000,  0.000000, -2.211104)
   7 Cr ( 0.000000,  0.000000,  2.208350)
   8 O  ( 0.000000,  0.000000,  0.000093)
   9 O  ( 0.000000,  0.000000,  0.000165)

Energy contributions relative to reference atoms: (reference = -126274.181857)

Kinetic:        +34.247265
Potential:      -53.866393
External:        +0.000000
XC:             -78.952844
Entropy (-ST):   -0.000000
Local:           +1.732334
Free energy:    -96.839638
Extrapolated:   -96.839638

Spin contamination: 4.763670 electrons
Showing only first 2 kpts
                      Up                     Down
 Kpt  Band  Eigenvalues  Occupancy  Eigenvalues  Occupancy
  0    28      8.50532    1.00000      8.50637    1.00000
  0    29      8.76911    1.00000      8.76882    1.00000
  0    30     10.01575    0.00000     10.01526    0.00000
  0    31     10.02379    0.00000     10.02174    0.00000

  1    28      8.53501    1.00000      8.53427    1.00000
  1    29      8.81593    1.00000      8.81405    1.00000
  1    30      9.95169    0.00000      9.95712    0.00000
  1    31     10.01477    0.00000     10.00455    0.00000

Fermi level: 9.31366

Gap: 0.824 eV
Transition (v -> c):
  (s=0, k=785, n=29, [-0.00, -0.00, -0.00]) -> (s=0, k=1099, n=30, [0.17, 0.17, 0.17])
Writing to born-0.01-3z-.gpw (mode='all')