User:   madkru@c097.nifl.fysik.dtu.dk
Date:   Mon Jul  4 16:16:51 2022
Arch:   x86_64
Pid:    261120
Python: 3.8.6
gpaw:   /home/niflheim/madkru/new_venv/gpaw/gpaw (1f0dfc9eae)
_gpaw:  /home/niflheim/madkru/new_venv/gpaw/build/lib.linux-x86_64-skylake-3.8/
        _gpaw.cpython-38-x86_64-linux-gnu.so (c1e45bfab3)
ase:    /home/niflheim/madkru/new_venv/ase/ase (version 3.23.0b1-ca38c75a67)
numpy:  /home/modules/software/SciPy-bundle/2020.11-foss-2020b/lib/python3.8/site-packages/numpy (version 1.19.4)
scipy:  /home/modules/software/SciPy-bundle/2020.11-foss-2020b/lib/python3.8/site-packages/scipy (version 1.5.4)
units:  Angstrom and eV
cores: 40
OpenMP: False
OMP_NUM_THREADS: 1

Input parameters:
  convergence: {bands: occupied,
                density: 0.0001,
                eigenstates: 4e-08,
                energy: 0.0005,
                forces: 0.0001}
  kpts: {gamma: True,
         size: [12, 12, 12]}
  mode: {ecut: 600.0,
         gammacentered: False,
         name: pw}
  occupations: {fixmagmom: False,
                name: fermi-dirac,
                width: 0.001}
  symmetry: {point_group: False,
             time_reversal: False}

System changes: positions, numbers, cell, pbc, initial_charges, initial_magmoms

Initialize ...

O-setup:
  name: Oxygen
  id: 9b9d51c344dea68c822856295a461509
  Z: 8.0
  valence: 6
  core: 2
  charge: 0.0
  file: /home/modules/software/GPAW-setups/0.9.20000/O.LDA.gz
  compensation charges: gauss, rc=0.21, lmax=2
  cutoffs: 1.17(filt), 0.83(core),
  valence states:
                energy  radius
    2s(2.00)   -23.752   0.688
    2p(4.00)    -9.195   0.598
    *s           3.459   0.688
    *p          18.016   0.598
    *d           0.000   0.619

  Using partial waves for O as LCAO basis

Cr-setup:
  name: Chromium
  id: 444e8044bc0f91048286c984738d87f5
  Z: 24.0
  valence: 6
  core: 18
  charge: 0.0
  file: /home/modules/software/GPAW-setups/0.9.20000/Cr.LDA.gz
  compensation charges: gauss, rc=0.35, lmax=2
  cutoffs: 2.14(filt), 3.04(core),
  valence states:
                energy  radius
    4s(1.00)    -4.191   1.164
    4p(0.00)    -1.079   1.217
    3d(5.00)    -3.128   1.111
    *s          23.021   1.164
    *p          26.132   1.217
    *d          24.083   1.111

  Using partial waves for Cr as LCAO basis

Reference energy: -126274.181857

Spin-polarized calculation.
Magnetic moment: 0.000000

Convergence criteria:
  Maximum total energy change: 0.0005 eV / electron
  Maximum integral of absolute density change: 0.0001 electrons
  Maximum integral of absolute eigenstate change: 4e-08 eV^2
  Maximum change in atomic force: 0.0001 eV / Ang
  Maximum number of iterations: 333

Symmetries present (total): 1

  ( 1  0  0)
  ( 0  1  0)
  ( 0  0  1)

1728 k-points: 12 x 12 x 12 Monkhorst-Pack grid + [1/24,1/24,1/24]
1728 k-points in the irreducible part of the Brillouin zone
       k-points in crystal coordinates                weights
   0:    -0.41666667   -0.41666667   -0.41666667          1/1728
   1:    -0.41666667   -0.41666667   -0.33333333          1/1728
   2:    -0.41666667   -0.41666667   -0.25000000          1/1728
   3:    -0.41666667   -0.41666667   -0.16666667          1/1728
   4:    -0.41666667   -0.41666667   -0.08333333          1/1728
   5:    -0.41666667   -0.41666667   -0.00000000          1/1728
   6:    -0.41666667   -0.41666667    0.08333333          1/1728
   7:    -0.41666667   -0.41666667    0.16666667          1/1728
   8:    -0.41666667   -0.41666667    0.25000000          1/1728
   9:    -0.41666667   -0.41666667    0.33333333          1/1728
          ...
1727:     0.50000000    0.50000000    0.50000000          1/1728

Wave functions: Plane wave expansion
  Cutoff energy: 600.000 eV
  Number of coefficients (min, max): 2896, 2946
  Pulay-stress correction: 0.000000 eV/Ang^3 (de/decut=0.000000)
  Using FFTW library
  ScaLapack parameters: grid=1x1, blocksize=None
  Wavefunction extrapolation:
    Improved wavefunction reuse through dual PAW basis

Occupation numbers: Fermi-Dirac: width=0.0010 eV

Eigensolver
   Davidson(niter=2)

Densities:
  Coarse grid: 32*32*32 grid
  Fine grid: 64*64*64 grid
  Total Charge: 0.000000

Density mixing:
  Method: difference
  Backend: pulay
  Linear mixing parameter: 0.05
  Mixing with 5 old densities
  Damping of long wave oscillations: 50

Hamiltonian:
  XC and Coulomb potentials evaluated on a 64*64*64 grid
  Using the LDA Exchange-Correlation functional
  External potential:
    <gpaw.external.NoExternalPotential object at 0x2b302f973340>

Total number of cores used: 40
Parallelization over k-points: 40

Number of atoms: 10
Number of atomic orbitals: 60
Number of bands in calculation: 40
Number of valence electrons: 60
Bands to converge: occupied

... initialized

Initializing position-dependent things.

Density initialized from atomic densities
Creating initial wave functions:
  40 bands from LCAO basis set

            Cr

            Cr
           O
         O      O

        O      O
             O
            Cr

            Cr

Positions:
   0 O     -0.760209   -1.389250    1.148641    ( 0.0000,  0.0000,  0.0000)
   1 O     -1.582607   -0.036807   -1.147820    ( 0.0000,  0.0000,  0.0000)
   2 O     -0.823830    1.352257    1.138121    ( 0.0000,  0.0000,  0.0000)
   3 O      0.823830   -1.352257   -1.148121    ( 0.0000,  0.0000,  0.0000)
   4 Cr    -0.000004    0.000260   -4.693226    ( 0.0000,  0.0000,  2.0000)
   5 Cr    -0.000004    0.000111   -2.195940    ( 0.0000,  0.0000, -2.0000)
   6 Cr     0.000004   -0.000260    4.693226    ( 0.0000,  0.0000, -2.0000)
   7 Cr     0.000004   -0.000111    2.195940    ( 0.0000,  0.0000,  2.0000)
   8 O      1.582607    0.036807    1.147820    ( 0.0000,  0.0000,  0.0000)
   9 O      0.760209    1.389250   -1.148641    ( 0.0000,  0.0000,  0.0000)

Unit cell:
           periodic     x           y           z      points  spacing
  1. axis:    yes    2.342815    1.352071    4.592704    32     0.1216
  2. axis:    yes   -2.342815    1.352071    4.592704    32     0.1216
  3. axis:    yes    0.000000   -2.704886    4.592923    32     0.1216

  Lengths:   5.330085   5.330085   5.330230
  Angles:   52.139511  52.139510  52.149782

Effective grid spacing dv^(1/3) = 0.1386

                     log10-error:           total        iterations:
           time      wfs    density  force  energy       poisson  magmom
iter:   1  16:24:25                       -100.567008             -0.0000
iter:   2  16:24:39  -0.70  -1.01          -99.836699             +0.0000
iter:   3  16:24:53  -0.13  -1.05          -97.281133             +0.0000
iter:   4  16:25:07  -1.16  -1.41          -97.358354             +0.0000
iter:   5  16:25:22  -1.15  -1.36          -97.357500             +0.0000
iter:   6  16:25:36  -0.76  -1.51          -96.977469             +0.0000
iter:   7  16:25:50  -1.59  -1.87          -96.869498             -0.0000
iter:   8  16:26:04  -1.77  -2.02          -96.844828             -0.0000
iter:   9  16:26:18  -1.93  -2.36          -96.843767             -0.0000
iter:  10  16:26:32  -2.68  -2.49          -96.837607             -0.0000
iter:  11  16:26:46  -2.74  -2.85          -96.846562             -0.0000
iter:  12  16:27:00  -3.15  -2.61          -96.844996             -0.0000
iter:  13  16:27:14  -2.73  -2.64          -96.838218             +0.0000
iter:  14  16:27:28  -3.41  -3.07          -96.838705             +0.0000
iter:  15  16:27:42  -3.77  -3.15          -96.838940             +0.0000
iter:  16  16:27:56  -3.92  -3.15          -96.839428             +0.0000
iter:  17  16:28:11  -3.98  -3.11          -96.839565             +0.0000
iter:  18  16:28:25  -4.17  -3.07          -96.839679             +0.0000
iter:  19  16:28:39  -4.31  -3.06          -96.839731             +0.0000
iter:  20  16:28:53  -4.28  -3.04          -96.839643             +0.0000
iter:  21  16:29:07  -4.14  -3.07          -96.839526             +0.0000
iter:  22  16:29:21  -4.53  -3.45          -96.839598             +0.0000
iter:  23  16:29:35  -4.42  -3.46          -96.839617             +0.0000
iter:  24  16:29:49  -4.54  -3.56          -96.839747             +0.0000
iter:  25  16:30:03  -4.72  -3.51          -96.839837             +0.0000
iter:  26  16:30:17  -4.98  -3.39          -96.839899             +0.0000
iter:  27  16:30:31  -4.68  -3.37          -96.839712             +0.0000
iter:  28  16:30:45  -4.95  -3.50          -96.839678             +0.0000
iter:  29  16:30:59  -4.58  -3.54          -96.839626             +0.0000
iter:  30  16:31:13  -4.99  -3.78          -96.839636             +0.0000
iter:  31  16:31:27  -5.14  -3.78          -96.839627             +0.0000
iter:  32  16:31:41  -5.23  -3.93          -96.839633             +0.0000
iter:  33  16:31:55  -5.35  -4.01          -96.839634             +0.0000
iter:  34  16:32:09  -5.72  -4.13          -96.839635             +0.0000
iter:  35  16:32:23  -5.93  -4.17          -96.839634             -0.0000
iter:  36  16:32:37  -5.95  -4.23          -96.839640             +0.0000
iter:  37  16:32:51  -6.24  -4.16          -96.839641             +0.0000
iter:  38  16:33:05  -6.30  -4.15          -96.839643             +0.0000
iter:  39  16:33:19  -6.36  -4.09          -96.839649             -0.0000
iter:  40  16:33:33  -6.42  -4.02          -96.839644             -0.0000
iter:  41  16:33:47  -6.57  -4.11          -96.839644             -0.0000
iter:  42  16:34:01  -6.58  -4.08          -96.839643             -0.0000
iter:  43  16:34:15  -6.75  -4.11          -96.839641             -0.0000
iter:  44  16:34:29  -6.44  -4.13          -96.839639             -0.0000
iter:  45  16:34:43  -6.43  -4.21          -96.839640             -0.0000
iter:  46  16:34:57  -6.83  -4.25          -96.839640             -0.0000
iter:  47  16:35:12  -6.44  -4.27          -96.839638             -0.0000
iter:  48  16:35:26  -6.77  -4.45          -96.839637             -0.0000
iter:  49  16:35:40  -7.13  -4.61          -96.839637             -0.0000
iter:  50  16:35:56  -7.40  -4.73          -96.839638             +0.0000
iter:  51  16:36:13  -7.51  -4.78    -3.30 -96.839638             +0.0000
iter:  52  16:36:27  -7.03  -4.81          -96.839638             +0.0000
iter:  53  16:36:41  -7.31  -4.85          -96.839638             +0.0000
iter:  54  16:36:57  -7.52  -5.16    -2.74 -96.839638             +0.0000
iter:  55  16:37:14  -7.71  -5.22    -3.78 -96.839638             +0.0000
iter:  56  16:37:30  -7.67  -5.29    -3.31 -96.839638             +0.0000
iter:  57  16:37:47  -7.88  -5.39    -3.62 -96.839638             +0.0000
iter:  58  16:38:03  -8.07  -5.42    -4.09 -96.839638             +0.0000

Converged after 58 iterations.

Dipole moment: (-0.014929, -0.006885, -0.030383) |e|*Ang

Total magnetic moment: (0.000000, 0.000000, 0.000000)
Local magnetic moments:
   0 O  ( 0.000000,  0.000000, -0.000163)
   1 O  ( 0.000000,  0.000000, -0.000229)
   2 O  ( 0.000000,  0.000000,  0.000344)
   3 O  ( 0.000000,  0.000000, -0.000088)
   4 Cr ( 0.000000,  0.000000,  2.208364)
   5 Cr ( 0.000000,  0.000000, -2.211110)
   6 Cr ( 0.000000,  0.000000, -2.208458)
   7 Cr ( 0.000000,  0.000000,  2.211005)
   8 O  ( 0.000000,  0.000000,  0.000165)
   9 O  ( 0.000000,  0.000000,  0.000093)

Energy contributions relative to reference atoms: (reference = -126274.181857)

Kinetic:        +34.241366
Potential:      -53.860335
External:        +0.000000
XC:             -78.952261
Entropy (-ST):   -0.000000
Local:           +1.731591
Free energy:    -96.839638
Extrapolated:   -96.839638

Spin contamination: 4.763660 electrons
Showing only first 2 kpts
                      Up                     Down
 Kpt  Band  Eigenvalues  Occupancy  Eigenvalues  Occupancy
  0    28      8.50526    1.00000      8.50630    1.00000
  0    29      8.76903    1.00000      8.76874    1.00000
  0    30     10.01569    0.00000     10.01519    0.00000
  0    31     10.02373    0.00000     10.02167    0.00000

  1    28      8.53495    1.00000      8.53421    1.00000
  1    29      8.81585    1.00000      8.81398    1.00000
  1    30      9.95163    0.00000      9.95706    0.00000
  1    31     10.01470    0.00000     10.00448    0.00000

Fermi level: 9.31366

Gap: 0.824 eV
Transition (v -> c):
  (s=0, k=785, n=29, [-0.00, -0.00, -0.00]) -> (s=0, k=1099, n=30, [0.17, 0.17, 0.17])
Writing to born-0.01-2z-.gpw (mode='all')