User:   madkru@c097.nifl.fysik.dtu.dk
Date:   Tue Jul  5 08:56:58 2022
Arch:   x86_64
Pid:    261120
Python: 3.8.6
gpaw:   /home/niflheim/madkru/new_venv/gpaw/gpaw (1f0dfc9eae)
_gpaw:  /home/niflheim/madkru/new_venv/gpaw/build/lib.linux-x86_64-skylake-3.8/
        _gpaw.cpython-38-x86_64-linux-gnu.so (c1e45bfab3)
ase:    /home/niflheim/madkru/new_venv/ase/ase (version 3.23.0b1-ca38c75a67)
numpy:  /home/modules/software/SciPy-bundle/2020.11-foss-2020b/lib/python3.8/site-packages/numpy (version 1.19.4)
scipy:  /home/modules/software/SciPy-bundle/2020.11-foss-2020b/lib/python3.8/site-packages/scipy (version 1.5.4)
units:  Angstrom and eV
cores: 40
OpenMP: False
OMP_NUM_THREADS: 1

Input parameters:
  convergence: {bands: occupied,
                density: 0.0001,
                eigenstates: 4e-08,
                energy: 0.0005,
                forces: 0.0001}
  kpts: {gamma: True,
         size: [12, 12, 12]}
  mode: {ecut: 600.0,
         gammacentered: False,
         name: pw}
  occupations: {fixmagmom: False,
                name: fermi-dirac,
                width: 0.001}
  symmetry: {point_group: False,
             time_reversal: False}

System changes: positions, numbers, cell, pbc, initial_charges, initial_magmoms

Initialize ...

O-setup:
  name: Oxygen
  id: 9b9d51c344dea68c822856295a461509
  Z: 8.0
  valence: 6
  core: 2
  charge: 0.0
  file: /home/modules/software/GPAW-setups/0.9.20000/O.LDA.gz
  compensation charges: gauss, rc=0.21, lmax=2
  cutoffs: 1.17(filt), 0.83(core),
  valence states:
                energy  radius
    2s(2.00)   -23.752   0.688
    2p(4.00)    -9.195   0.598
    *s           3.459   0.688
    *p          18.016   0.598
    *d           0.000   0.619

  Using partial waves for O as LCAO basis

Cr-setup:
  name: Chromium
  id: 444e8044bc0f91048286c984738d87f5
  Z: 24.0
  valence: 6
  core: 18
  charge: 0.0
  file: /home/modules/software/GPAW-setups/0.9.20000/Cr.LDA.gz
  compensation charges: gauss, rc=0.35, lmax=2
  cutoffs: 2.14(filt), 3.04(core),
  valence states:
                energy  radius
    4s(1.00)    -4.191   1.164
    4p(0.00)    -1.079   1.217
    3d(5.00)    -3.128   1.111
    *s          23.021   1.164
    *p          26.132   1.217
    *d          24.083   1.111

  Using partial waves for Cr as LCAO basis

Reference energy: -126274.181857

Spin-polarized calculation.
Magnetic moment: 0.000000

Convergence criteria:
  Maximum total energy change: 0.0005 eV / electron
  Maximum integral of absolute density change: 0.0001 electrons
  Maximum integral of absolute eigenstate change: 4e-08 eV^2
  Maximum change in atomic force: 0.0001 eV / Ang
  Maximum number of iterations: 333

Symmetries present (total): 1

  ( 1  0  0)
  ( 0  1  0)
  ( 0  0  1)

1728 k-points: 12 x 12 x 12 Monkhorst-Pack grid + [1/24,1/24,1/24]
1728 k-points in the irreducible part of the Brillouin zone
       k-points in crystal coordinates                weights
   0:    -0.41666667   -0.41666667   -0.41666667          1/1728
   1:    -0.41666667   -0.41666667   -0.33333333          1/1728
   2:    -0.41666667   -0.41666667   -0.25000000          1/1728
   3:    -0.41666667   -0.41666667   -0.16666667          1/1728
   4:    -0.41666667   -0.41666667   -0.08333333          1/1728
   5:    -0.41666667   -0.41666667   -0.00000000          1/1728
   6:    -0.41666667   -0.41666667    0.08333333          1/1728
   7:    -0.41666667   -0.41666667    0.16666667          1/1728
   8:    -0.41666667   -0.41666667    0.25000000          1/1728
   9:    -0.41666667   -0.41666667    0.33333333          1/1728
          ...
1727:     0.50000000    0.50000000    0.50000000          1/1728

Wave functions: Plane wave expansion
  Cutoff energy: 600.000 eV
  Number of coefficients (min, max): 2896, 2946
  Pulay-stress correction: 0.000000 eV/Ang^3 (de/decut=0.000000)
  Using FFTW library
  ScaLapack parameters: grid=1x1, blocksize=None
  Wavefunction extrapolation:
    Improved wavefunction reuse through dual PAW basis

Occupation numbers: Fermi-Dirac: width=0.0010 eV

Eigensolver
   Davidson(niter=2)

Densities:
  Coarse grid: 32*32*32 grid
  Fine grid: 64*64*64 grid
  Total Charge: 0.000000

Density mixing:
  Method: difference
  Backend: pulay
  Linear mixing parameter: 0.05
  Mixing with 5 old densities
  Damping of long wave oscillations: 50

Hamiltonian:
  XC and Coulomb potentials evaluated on a 64*64*64 grid
  Using the LDA Exchange-Correlation functional
  External potential:
    <gpaw.external.NoExternalPotential object at 0x2b30306c8d90>

Total number of cores used: 40
Parallelization over k-points: 40

Number of atoms: 10
Number of atomic orbitals: 60
Number of bands in calculation: 40
Number of valence electrons: 60
Bands to converge: occupied

... initialized

Initializing position-dependent things.

Density initialized from atomic densities
Creating initial wave functions:
  40 bands from LCAO basis set

            Cr

            Cr
           O
         O      O

        O      O
             O
            Cr

            Cr

Positions:
   0 O     -0.760209   -1.389250    1.148641    ( 0.0000,  0.0000,  0.0000)
   1 O     -1.582607   -0.036807   -1.147820    ( 0.0000,  0.0000,  0.0000)
   2 O     -0.823830    1.352257    1.148121    ( 0.0000,  0.0000,  0.0000)
   3 O      0.823830   -1.352257   -1.148121    ( 0.0000,  0.0000,  0.0000)
   4 Cr    -0.000004    0.000260   -4.693226    ( 0.0000,  0.0000,  2.0000)
   5 Cr    -0.000004    0.000111   -2.195940    ( 0.0000,  0.0000, -2.0000)
   6 Cr     0.000004   -0.000260    4.693226    ( 0.0000,  0.0000, -2.0000)
   7 Cr     0.000004   -0.000111    2.195940    ( 0.0000,  0.0000,  2.0000)
   8 O      1.582607    0.036807    1.157820    ( 0.0000,  0.0000,  0.0000)
   9 O      0.760209    1.389250   -1.148641    ( 0.0000,  0.0000,  0.0000)

Unit cell:
           periodic     x           y           z      points  spacing
  1. axis:    yes    2.342815    1.352071    4.592704    32     0.1216
  2. axis:    yes   -2.342815    1.352071    4.592704    32     0.1216
  3. axis:    yes    0.000000   -2.704886    4.592923    32     0.1216

  Lengths:   5.330085   5.330085   5.330230
  Angles:   52.139511  52.139510  52.149782

Effective grid spacing dv^(1/3) = 0.1386

                     log10-error:           total        iterations:
           time      wfs    density  force  energy       poisson  magmom
iter:   1  09:04:27                       -100.567032             -0.0000
iter:   2  09:04:41  -0.70  -1.01          -99.836713             -0.0000
iter:   3  09:04:55  -0.13  -1.05          -97.281134             +0.0000
iter:   4  09:05:09  -1.16  -1.41          -97.358357             +0.0000
iter:   5  09:05:23  -1.15  -1.36          -97.357497             +0.0000
iter:   6  09:05:38  -0.76  -1.51          -96.977468             +0.0000
iter:   7  09:05:52  -1.59  -1.87          -96.869495             +0.0000
iter:   8  09:06:06  -1.77  -2.02          -96.844826             +0.0000
iter:   9  09:06:20  -1.93  -2.36          -96.843767             +0.0000
iter:  10  09:06:34  -2.68  -2.49          -96.837609             +0.0000
iter:  11  09:06:48  -2.74  -2.85          -96.846556             +0.0000
iter:  12  09:07:02  -3.15  -2.61          -96.845007             +0.0000
iter:  13  09:07:16  -2.73  -2.64          -96.838213             +0.0000
iter:  14  09:07:30  -3.41  -3.07          -96.838702             +0.0000
iter:  15  09:07:44  -3.77  -3.14          -96.838933             +0.0000
iter:  16  09:07:58  -3.91  -3.15          -96.839447             -0.0000
iter:  17  09:08:12  -3.99  -3.10          -96.839553             -0.0000
iter:  18  09:08:26  -4.18  -3.06          -96.839679             +0.0000
iter:  19  09:08:40  -4.30  -3.05          -96.839729             +0.0000
iter:  20  09:08:54  -4.25  -3.04          -96.839633             +0.0000
iter:  21  09:09:08  -4.12  -3.09          -96.839515             +0.0000
iter:  22  09:09:22  -4.54  -3.50          -96.839586             +0.0000
iter:  23  09:09:37  -4.24  -3.48          -96.839656             +0.0000
iter:  24  09:09:51  -4.65  -3.45          -96.839750             +0.0000
iter:  25  09:10:05  -4.77  -3.48          -96.839831             +0.0000
iter:  26  09:10:19  -4.86  -3.38          -96.839666             +0.0000
iter:  27  09:10:33  -5.15  -3.57          -96.839727             +0.0000
iter:  28  09:10:47  -5.25  -3.58          -96.839756             +0.0000
iter:  29  09:11:01  -4.70  -3.54          -96.839654             +0.0000
iter:  30  09:11:15  -4.76  -3.68          -96.839702             +0.0000
iter:  31  09:11:29  -5.27  -3.46          -96.839653             +0.0000
iter:  32  09:11:43  -5.18  -3.64          -96.839639             +0.0000
iter:  33  09:11:57  -4.99  -3.81          -96.839637             +0.0000
iter:  34  09:12:11  -5.43  -3.89          -96.839634             +0.0000
iter:  35  09:12:25  -5.60  -3.94          -96.839631             +0.0000
iter:  36  09:12:39  -5.65  -4.00          -96.839635             +0.0000
iter:  37  09:12:53  -5.89  -4.03          -96.839636             +0.0000
iter:  38  09:13:07  -5.94  -4.19          -96.839635             +0.0000
iter:  39  09:13:21  -6.18  -4.40          -96.839635             +0.0000
iter:  40  09:13:35  -6.27  -4.47          -96.839635             +0.0000
iter:  41  09:13:49  -6.43  -4.75          -96.839635             +0.0000
iter:  42  09:14:03  -6.63  -4.83          -96.839635             +0.0000
iter:  43  09:14:17  -6.73  -4.85          -96.839636             +0.0000
iter:  44  09:14:31  -6.79  -5.17          -96.839636             +0.0000
iter:  45  09:14:45  -6.92  -5.38          -96.839636             +0.0000
iter:  46  09:15:00  -7.10  -5.43          -96.839636             +0.0000
iter:  47  09:15:14  -7.31  -5.56          -96.839636             +0.0000
iter:  48  09:15:30  -7.41  -5.75          -96.839636             +0.0000
iter:  49  09:15:47  -7.41  -5.79    -3.95 -96.839636             +0.0000
iter:  50  09:16:03  -7.49  -5.91    -3.70 -96.839637             +0.0000
iter:  51  09:16:20  -7.62  -6.01    -4.78 -96.839637             +0.0000

Converged after 51 iterations.

Dipole moment: (-0.001560, -0.016817, 0.031261) |e|*Ang

Total magnetic moment: (0.000000, 0.000000, 0.000000)
Local magnetic moments:
   0 O  ( 0.000000,  0.000000, -0.000160)
   1 O  ( 0.000000,  0.000000, -0.000074)
   2 O  ( 0.000000,  0.000000, -0.000006)
   3 O  ( 0.000000,  0.000000,  0.000065)
   4 Cr ( 0.000000,  0.000000,  2.211081)
   5 Cr ( 0.000000,  0.000000, -2.208335)
   6 Cr ( 0.000000,  0.000000, -2.210970)
   7 Cr ( 0.000000,  0.000000,  2.208435)
   8 O  ( 0.000000,  0.000000, -0.000185)
   9 O  ( 0.000000,  0.000000,  0.000227)

Energy contributions relative to reference atoms: (reference = -126274.181857)

Kinetic:        +34.248566
Potential:      -53.867852
External:        +0.000000
XC:             -78.952743
Entropy (-ST):   -0.000000
Local:           +1.732393
Free energy:    -96.839637
Extrapolated:   -96.839637

Spin contamination: 4.763623 electrons
Showing only first 2 kpts
                      Up                     Down
 Kpt  Band  Eigenvalues  Occupancy  Eigenvalues  Occupancy
  0    28      8.50659    1.00000      8.50529    1.00000
  0    29      8.76885    1.00000      8.76910    1.00000
  0    30     10.01462    0.00000     10.01628    0.00000
  0    31     10.02235    0.00000     10.02327    0.00000

  1    28      8.53599    1.00000      8.53545    1.00000
  1    29      8.81455    1.00000      8.81408    1.00000
  1    30      9.95245    0.00000      9.95505    0.00000
  1    31     10.01015    0.00000     10.00958    0.00000

Fermi level: 9.47368

Gap: 0.824 eV
Transition (v -> c):
  (s=1, k=785, n=29, [-0.00, -0.00, -0.00]) -> (s=0, k=1099, n=30, [0.17, 0.17, 0.17])
Writing to born-0.01-8z+.gpw (mode='all')