User:   madkru@c097.nifl.fysik.dtu.dk
Date:   Mon Jul  4 15:49:57 2022
Arch:   x86_64
Pid:    261120
Python: 3.8.6
gpaw:   /home/niflheim/madkru/new_venv/gpaw/gpaw (1f0dfc9eae)
_gpaw:  /home/niflheim/madkru/new_venv/gpaw/build/lib.linux-x86_64-skylake-3.8/
        _gpaw.cpython-38-x86_64-linux-gnu.so (c1e45bfab3)
ase:    /home/niflheim/madkru/new_venv/ase/ase (version 3.23.0b1-ca38c75a67)
numpy:  /home/modules/software/SciPy-bundle/2020.11-foss-2020b/lib/python3.8/site-packages/numpy (version 1.19.4)
scipy:  /home/modules/software/SciPy-bundle/2020.11-foss-2020b/lib/python3.8/site-packages/scipy (version 1.5.4)
units:  Angstrom and eV
cores: 40
OpenMP: False
OMP_NUM_THREADS: 1

Input parameters:
  convergence: {bands: occupied,
                density: 0.0001,
                eigenstates: 4e-08,
                energy: 0.0005,
                forces: 0.0001}
  kpts: {gamma: True,
         size: [12, 12, 12]}
  mode: {ecut: 600.0,
         gammacentered: False,
         name: pw}
  occupations: {fixmagmom: False,
                name: fermi-dirac,
                width: 0.001}
  symmetry: {point_group: False,
             time_reversal: False}

System changes: positions, numbers, cell, pbc, initial_charges, initial_magmoms

Initialize ...

O-setup:
  name: Oxygen
  id: 9b9d51c344dea68c822856295a461509
  Z: 8.0
  valence: 6
  core: 2
  charge: 0.0
  file: /home/modules/software/GPAW-setups/0.9.20000/O.LDA.gz
  compensation charges: gauss, rc=0.21, lmax=2
  cutoffs: 1.17(filt), 0.83(core),
  valence states:
                energy  radius
    2s(2.00)   -23.752   0.688
    2p(4.00)    -9.195   0.598
    *s           3.459   0.688
    *p          18.016   0.598
    *d           0.000   0.619

  Using partial waves for O as LCAO basis

Cr-setup:
  name: Chromium
  id: 444e8044bc0f91048286c984738d87f5
  Z: 24.0
  valence: 6
  core: 18
  charge: 0.0
  file: /home/modules/software/GPAW-setups/0.9.20000/Cr.LDA.gz
  compensation charges: gauss, rc=0.35, lmax=2
  cutoffs: 2.14(filt), 3.04(core),
  valence states:
                energy  radius
    4s(1.00)    -4.191   1.164
    4p(0.00)    -1.079   1.217
    3d(5.00)    -3.128   1.111
    *s          23.021   1.164
    *p          26.132   1.217
    *d          24.083   1.111

  Using partial waves for Cr as LCAO basis

Reference energy: -126274.181857

Spin-polarized calculation.
Magnetic moment: 0.000000

Convergence criteria:
  Maximum total energy change: 0.0005 eV / electron
  Maximum integral of absolute density change: 0.0001 electrons
  Maximum integral of absolute eigenstate change: 4e-08 eV^2
  Maximum change in atomic force: 0.0001 eV / Ang
  Maximum number of iterations: 333

Symmetries present (total): 1

  ( 1  0  0)
  ( 0  1  0)
  ( 0  0  1)

1728 k-points: 12 x 12 x 12 Monkhorst-Pack grid + [1/24,1/24,1/24]
1728 k-points in the irreducible part of the Brillouin zone
       k-points in crystal coordinates                weights
   0:    -0.41666667   -0.41666667   -0.41666667          1/1728
   1:    -0.41666667   -0.41666667   -0.33333333          1/1728
   2:    -0.41666667   -0.41666667   -0.25000000          1/1728
   3:    -0.41666667   -0.41666667   -0.16666667          1/1728
   4:    -0.41666667   -0.41666667   -0.08333333          1/1728
   5:    -0.41666667   -0.41666667   -0.00000000          1/1728
   6:    -0.41666667   -0.41666667    0.08333333          1/1728
   7:    -0.41666667   -0.41666667    0.16666667          1/1728
   8:    -0.41666667   -0.41666667    0.25000000          1/1728
   9:    -0.41666667   -0.41666667    0.33333333          1/1728
          ...
1727:     0.50000000    0.50000000    0.50000000          1/1728

Wave functions: Plane wave expansion
  Cutoff energy: 600.000 eV
  Number of coefficients (min, max): 2896, 2946
  Pulay-stress correction: 0.000000 eV/Ang^3 (de/decut=0.000000)
  Using FFTW library
  ScaLapack parameters: grid=1x1, blocksize=None
  Wavefunction extrapolation:
    Improved wavefunction reuse through dual PAW basis

Occupation numbers: Fermi-Dirac: width=0.0010 eV

Eigensolver
   Davidson(niter=2)

Densities:
  Coarse grid: 32*32*32 grid
  Fine grid: 64*64*64 grid
  Total Charge: 0.000000

Density mixing:
  Method: difference
  Backend: pulay
  Linear mixing parameter: 0.05
  Mixing with 5 old densities
  Damping of long wave oscillations: 50

Hamiltonian:
  XC and Coulomb potentials evaluated on a 64*64*64 grid
  Using the LDA Exchange-Correlation functional
  External potential:
    <gpaw.external.NoExternalPotential object at 0x2b30306a5f40>

Total number of cores used: 40
Parallelization over k-points: 40

Number of atoms: 10
Number of atomic orbitals: 60
Number of bands in calculation: 40
Number of valence electrons: 60
Bands to converge: occupied

... initialized

Initializing position-dependent things.

Density initialized from atomic densities
Creating initial wave functions:
  40 bands from LCAO basis set

            Cr

            Cr
           O
         O      O

        O      O
             O
            Cr

            Cr

Positions:
   0 O     -0.760209   -1.389250    1.148641    ( 0.0000,  0.0000,  0.0000)
   1 O     -1.582607   -0.036807   -1.147820    ( 0.0000,  0.0000,  0.0000)
   2 O     -0.823830    1.362257    1.148121    ( 0.0000,  0.0000,  0.0000)
   3 O      0.823830   -1.352257   -1.148121    ( 0.0000,  0.0000,  0.0000)
   4 Cr    -0.000004    0.000260   -4.693226    ( 0.0000,  0.0000,  2.0000)
   5 Cr    -0.000004    0.000111   -2.195940    ( 0.0000,  0.0000, -2.0000)
   6 Cr     0.000004   -0.000260    4.693226    ( 0.0000,  0.0000, -2.0000)
   7 Cr     0.000004   -0.000111    2.195940    ( 0.0000,  0.0000,  2.0000)
   8 O      1.582607    0.036807    1.147820    ( 0.0000,  0.0000,  0.0000)
   9 O      0.760209    1.389250   -1.148641    ( 0.0000,  0.0000,  0.0000)

Unit cell:
           periodic     x           y           z      points  spacing
  1. axis:    yes    2.342815    1.352071    4.592704    32     0.1216
  2. axis:    yes   -2.342815    1.352071    4.592704    32     0.1216
  3. axis:    yes    0.000000   -2.704886    4.592923    32     0.1216

  Lengths:   5.330085   5.330085   5.330230
  Angles:   52.139511  52.139510  52.149782

Effective grid spacing dv^(1/3) = 0.1386

                     log10-error:           total        iterations:
           time      wfs    density  force  energy       poisson  magmom
iter:   1  15:57:32                       -100.566933             -0.0000
iter:   2  15:57:47  -0.70  -1.01          -99.836575             -0.0000
iter:   3  15:58:01  -0.13  -1.05          -97.280992             +0.0000
iter:   4  15:58:15  -1.16  -1.41          -97.358237             -0.0000
iter:   5  15:58:29  -1.15  -1.36          -97.357283             -0.0000
iter:   6  15:58:44  -0.76  -1.51          -96.977360             +0.0000
iter:   7  15:58:58  -1.59  -1.87          -96.869091             +0.0000
iter:   8  15:59:12  -1.77  -2.02          -96.844550             +0.0000
iter:   9  15:59:26  -1.93  -2.36          -96.843190             +0.0000
iter:  10  15:59:40  -2.75  -2.50          -96.839111             +0.0000
iter:  11  15:59:55  -2.87  -2.74          -96.842615             +0.0000
iter:  12  16:00:09  -3.18  -2.72          -96.842877             +0.0000
iter:  13  16:00:23  -3.14  -2.72          -96.839183             +0.0000
iter:  14  16:00:37  -2.99  -2.84          -96.839086             +0.0000
iter:  15  16:00:51  -3.50  -2.89          -96.838956             +0.0000
iter:  16  16:01:05  -3.83  -3.14          -96.839070             -0.0000
iter:  17  16:01:20  -3.88  -3.25          -96.839157             -0.0000
iter:  18  16:01:34  -3.91  -3.35          -96.839447             -0.0000
iter:  19  16:01:48  -3.92  -3.19          -96.839299             -0.0000
iter:  20  16:02:02  -4.30  -3.75          -96.839349             -0.0000
iter:  21  16:02:16  -4.44  -3.67          -96.839413             -0.0000
iter:  22  16:02:30  -4.70  -3.56          -96.839456             -0.0000
iter:  23  16:02:44  -4.76  -3.60          -96.839473             -0.0000
iter:  24  16:02:58  -4.81  -3.56          -96.839469             -0.0000
iter:  25  16:03:13  -5.01  -3.74          -96.839497             -0.0000
iter:  26  16:03:27  -4.92  -3.66          -96.839505             -0.0000
iter:  27  16:03:41  -5.16  -3.80          -96.839516             -0.0000
iter:  28  16:03:55  -5.26  -3.72          -96.839516             -0.0000
iter:  29  16:04:09  -5.34  -3.89          -96.839519             -0.0000
iter:  30  16:04:23  -5.32  -3.89          -96.839527             -0.0000
iter:  31  16:04:37  -5.52  -4.02          -96.839526             -0.0000
iter:  32  16:04:52  -5.65  -4.08          -96.839523             -0.0000
iter:  33  16:05:06  -5.80  -4.29          -96.839524             -0.0000
iter:  34  16:05:20  -6.01  -4.38          -96.839526             -0.0000
iter:  35  16:05:34  -6.17  -4.37          -96.839528             -0.0000
iter:  36  16:05:48  -6.20  -4.36          -96.839529             -0.0000
iter:  37  16:06:02  -6.28  -4.37          -96.839530             -0.0000
iter:  38  16:06:16  -6.33  -4.37          -96.839531             -0.0000
iter:  39  16:06:30  -6.35  -4.31          -96.839531             -0.0000
iter:  40  16:06:44  -6.43  -4.36          -96.839532             -0.0000
iter:  41  16:06:58  -6.61  -4.40          -96.839532             -0.0000
iter:  42  16:07:12  -6.60  -4.41          -96.839532             -0.0000
iter:  43  16:07:27  -6.81  -4.40          -96.839532             -0.0000
iter:  44  16:07:41  -6.67  -4.41          -96.839533             -0.0000
iter:  45  16:07:55  -6.80  -4.45          -96.839532             -0.0000
iter:  46  16:08:09  -6.72  -4.57          -96.839532             -0.0000
iter:  47  16:08:23  -6.94  -4.79          -96.839532             -0.0000
iter:  48  16:08:37  -7.03  -4.90          -96.839532             -0.0000
iter:  49  16:08:51  -7.19  -5.10          -96.839532             -0.0000
iter:  50  16:09:05  -7.31  -5.21          -96.839532             -0.0000
iter:  51  16:09:22  -7.44  -5.48          -96.839533             -0.0000
iter:  52  16:09:38  -7.55  -5.53    -4.16 -96.839533             -0.0000

Converged after 52 iterations.

Dipole moment: (0.025144, 0.021026, 0.038359) |e|*Ang

Total magnetic moment: (0.000000, 0.000000, -0.000000)
Local magnetic moments:
   0 O  ( 0.000000,  0.000000, -0.000045)
   1 O  ( 0.000000,  0.000000, -0.000203)
   2 O  ( 0.000000,  0.000000, -0.001562)
   3 O  ( 0.000000,  0.000000, -0.000103)
   4 Cr ( 0.000000,  0.000000,  2.210052)
   5 Cr ( 0.000000,  0.000000, -2.209386)
   6 Cr ( 0.000000,  0.000000, -2.209173)
   7 Cr ( 0.000000,  0.000000,  2.210204)
   8 O  ( 0.000000,  0.000000,  0.000278)
   9 O  ( 0.000000,  0.000000,  0.000110)

Energy contributions relative to reference atoms: (reference = -126274.181857)

Kinetic:        +34.245915
Potential:      -53.865844
External:        +0.000000
XC:             -78.952391
Entropy (-ST):   -0.000000
Local:           +1.732787
Free energy:    -96.839533
Extrapolated:   -96.839533

Spin contamination: 4.763607 electrons
Showing only first 2 kpts
                      Up                     Down
 Kpt  Band  Eigenvalues  Occupancy  Eigenvalues  Occupancy
  0    28      8.50279    1.00000      8.50855    1.00000
  0    29      8.76667    1.00000      8.77136    1.00000
  0    30     10.01541    0.00000     10.01766    0.00000
  0    31     10.02128    0.00000     10.02193    0.00000

  1    28      8.53277    1.00000      8.53673    1.00000
  1    29      8.81235    1.00000      8.81776    1.00000
  1    30      9.95171    0.00000      9.95683    0.00000
  1    31     10.01096    0.00000     10.00848    0.00000

Fermi level: 9.44260

Gap: 0.821 eV
Transition (v -> c):
  (s=1, k=785, n=29, [-0.00, -0.00, -0.00]) -> (s=0, k=1099, n=30, [0.17, 0.17, 0.17])
Writing to born-0.01-2y+.gpw (mode='all')