User:   madkru@c097.nifl.fysik.dtu.dk
Date:   Mon Jul  4 23:55:32 2022
Arch:   x86_64
Pid:    261120
Python: 3.8.6
gpaw:   /home/niflheim/madkru/new_venv/gpaw/gpaw (1f0dfc9eae)
_gpaw:  /home/niflheim/madkru/new_venv/gpaw/build/lib.linux-x86_64-skylake-3.8/
        _gpaw.cpython-38-x86_64-linux-gnu.so (c1e45bfab3)
ase:    /home/niflheim/madkru/new_venv/ase/ase (version 3.23.0b1-ca38c75a67)
numpy:  /home/modules/software/SciPy-bundle/2020.11-foss-2020b/lib/python3.8/site-packages/numpy (version 1.19.4)
scipy:  /home/modules/software/SciPy-bundle/2020.11-foss-2020b/lib/python3.8/site-packages/scipy (version 1.5.4)
units:  Angstrom and eV
cores: 40
OpenMP: False
OMP_NUM_THREADS: 1

Input parameters:
  convergence: {bands: occupied,
                density: 0.0001,
                eigenstates: 4e-08,
                energy: 0.0005,
                forces: 0.0001}
  kpts: {gamma: True,
         size: [12, 12, 12]}
  mode: {ecut: 600.0,
         gammacentered: False,
         name: pw}
  occupations: {fixmagmom: False,
                name: fermi-dirac,
                width: 0.001}
  symmetry: {point_group: False,
             time_reversal: False}

System changes: positions, numbers, cell, pbc, initial_charges, initial_magmoms

Initialize ...

O-setup:
  name: Oxygen
  id: 9b9d51c344dea68c822856295a461509
  Z: 8.0
  valence: 6
  core: 2
  charge: 0.0
  file: /home/modules/software/GPAW-setups/0.9.20000/O.LDA.gz
  compensation charges: gauss, rc=0.21, lmax=2
  cutoffs: 1.17(filt), 0.83(core),
  valence states:
                energy  radius
    2s(2.00)   -23.752   0.688
    2p(4.00)    -9.195   0.598
    *s           3.459   0.688
    *p          18.016   0.598
    *d           0.000   0.619

  Using partial waves for O as LCAO basis

Cr-setup:
  name: Chromium
  id: 444e8044bc0f91048286c984738d87f5
  Z: 24.0
  valence: 6
  core: 18
  charge: 0.0
  file: /home/modules/software/GPAW-setups/0.9.20000/Cr.LDA.gz
  compensation charges: gauss, rc=0.35, lmax=2
  cutoffs: 2.14(filt), 3.04(core),
  valence states:
                energy  radius
    4s(1.00)    -4.191   1.164
    4p(0.00)    -1.079   1.217
    3d(5.00)    -3.128   1.111
    *s          23.021   1.164
    *p          26.132   1.217
    *d          24.083   1.111

  Using partial waves for Cr as LCAO basis

Reference energy: -126274.181857

Spin-polarized calculation.
Magnetic moment: 0.000000

Convergence criteria:
  Maximum total energy change: 0.0005 eV / electron
  Maximum integral of absolute density change: 0.0001 electrons
  Maximum integral of absolute eigenstate change: 4e-08 eV^2
  Maximum change in atomic force: 0.0001 eV / Ang
  Maximum number of iterations: 333

Symmetries present (total): 1

  ( 1  0  0)
  ( 0  1  0)
  ( 0  0  1)

1728 k-points: 12 x 12 x 12 Monkhorst-Pack grid + [1/24,1/24,1/24]
1728 k-points in the irreducible part of the Brillouin zone
       k-points in crystal coordinates                weights
   0:    -0.41666667   -0.41666667   -0.41666667          1/1728
   1:    -0.41666667   -0.41666667   -0.33333333          1/1728
   2:    -0.41666667   -0.41666667   -0.25000000          1/1728
   3:    -0.41666667   -0.41666667   -0.16666667          1/1728
   4:    -0.41666667   -0.41666667   -0.08333333          1/1728
   5:    -0.41666667   -0.41666667   -0.00000000          1/1728
   6:    -0.41666667   -0.41666667    0.08333333          1/1728
   7:    -0.41666667   -0.41666667    0.16666667          1/1728
   8:    -0.41666667   -0.41666667    0.25000000          1/1728
   9:    -0.41666667   -0.41666667    0.33333333          1/1728
          ...
1727:     0.50000000    0.50000000    0.50000000          1/1728

Wave functions: Plane wave expansion
  Cutoff energy: 600.000 eV
  Number of coefficients (min, max): 2896, 2946
  Pulay-stress correction: 0.000000 eV/Ang^3 (de/decut=0.000000)
  Using FFTW library
  ScaLapack parameters: grid=1x1, blocksize=None
  Wavefunction extrapolation:
    Improved wavefunction reuse through dual PAW basis

Occupation numbers: Fermi-Dirac: width=0.0010 eV

Eigensolver
   Davidson(niter=2)

Densities:
  Coarse grid: 32*32*32 grid
  Fine grid: 64*64*64 grid
  Total Charge: 0.000000

Density mixing:
  Method: difference
  Backend: pulay
  Linear mixing parameter: 0.05
  Mixing with 5 old densities
  Damping of long wave oscillations: 50

Hamiltonian:
  XC and Coulomb potentials evaluated on a 64*64*64 grid
  Using the LDA Exchange-Correlation functional
  External potential:
    <gpaw.external.NoExternalPotential object at 0x2b304fe6deb0>

Total number of cores used: 40
Parallelization over k-points: 40

Number of atoms: 10
Number of atomic orbitals: 60
Number of bands in calculation: 40
Number of valence electrons: 60
Bands to converge: occupied

... initialized

Initializing position-dependent things.

Density initialized from atomic densities
Creating initial wave functions:
  40 bands from LCAO basis set

            Cr

            Cr
           O
         O      O

        O      O
             O
            Cr

            Cr

Positions:
   0 O     -0.760209   -1.389250    1.148641    ( 0.0000,  0.0000,  0.0000)
   1 O     -1.582607   -0.036807   -1.147820    ( 0.0000,  0.0000,  0.0000)
   2 O     -0.823830    1.352257    1.148121    ( 0.0000,  0.0000,  0.0000)
   3 O      0.823830   -1.352257   -1.148121    ( 0.0000,  0.0000,  0.0000)
   4 Cr    -0.000004    0.000260   -4.693226    ( 0.0000,  0.0000,  2.0000)
   5 Cr    -0.000004    0.010111   -2.195940    ( 0.0000,  0.0000, -2.0000)
   6 Cr     0.000004   -0.000260    4.693226    ( 0.0000,  0.0000, -2.0000)
   7 Cr     0.000004   -0.000111    2.195940    ( 0.0000,  0.0000,  2.0000)
   8 O      1.582607    0.036807    1.147820    ( 0.0000,  0.0000,  0.0000)
   9 O      0.760209    1.389250   -1.148641    ( 0.0000,  0.0000,  0.0000)

Unit cell:
           periodic     x           y           z      points  spacing
  1. axis:    yes    2.342815    1.352071    4.592704    32     0.1216
  2. axis:    yes   -2.342815    1.352071    4.592704    32     0.1216
  3. axis:    yes    0.000000   -2.704886    4.592923    32     0.1216

  Lengths:   5.330085   5.330085   5.330230
  Angles:   52.139511  52.139510  52.149782

Effective grid spacing dv^(1/3) = 0.1386

                     log10-error:           total        iterations:
           time      wfs    density  force  energy       poisson  magmom
iter:   1  00:03:08                       -100.566814             +0.0000
iter:   2  00:03:22  -0.70  -1.01          -99.836484             +0.0000
iter:   3  00:03:36  -0.13  -1.05          -97.280871             -0.0000
iter:   4  00:03:50  -1.16  -1.41          -97.358085             -0.0000
iter:   5  00:04:04  -1.15  -1.36          -97.357406             -0.0000
iter:   6  00:04:18  -0.76  -1.51          -96.977228             -0.0000
iter:   7  00:04:32  -1.59  -1.87          -96.868562             -0.0000
iter:   8  00:04:46  -1.77  -2.02          -96.844139             -0.0000
iter:   9  00:05:00  -1.94  -2.36          -96.842944             -0.0000
iter:  10  00:05:14  -2.70  -2.50          -96.841152             -0.0000
iter:  11  00:05:28  -2.83  -2.65          -96.840513             -0.0000
iter:  12  00:05:42  -3.17  -2.80          -96.838747             -0.0000
iter:  13  00:05:56  -3.29  -3.03          -96.838200             -0.0000
iter:  14  00:06:10  -3.61  -3.30          -96.838592             +0.0000
iter:  15  00:06:24  -3.74  -3.31          -96.838897             -0.0000
iter:  16  00:06:38  -3.93  -3.37          -96.838999             -0.0000
iter:  17  00:06:52  -4.03  -3.51          -96.839085             +0.0000
iter:  18  00:07:06  -4.18  -3.58          -96.839158             +0.0000
iter:  19  00:07:20  -4.39  -3.65          -96.839266             +0.0000
iter:  20  00:07:34  -4.49  -3.57          -96.839293             +0.0000
iter:  21  00:07:48  -4.62  -3.62          -96.839327             -0.0000
iter:  22  00:08:02  -4.79  -3.63          -96.839338             +0.0000
iter:  23  00:08:16  -4.88  -3.69          -96.839349             +0.0000
iter:  24  00:08:30  -5.06  -3.71          -96.839364             -0.0000
iter:  25  00:08:44  -5.18  -3.72          -96.839370             -0.0000
iter:  26  00:08:58  -5.22  -3.73          -96.839386             +0.0000
iter:  27  00:09:12  -5.39  -3.72          -96.839397             +0.0000
iter:  28  00:09:26  -5.36  -3.74          -96.839395             +0.0000
iter:  29  00:09:40  -5.49  -4.17          -96.839398             +0.0000
iter:  30  00:09:54  -5.73  -4.29          -96.839402             +0.0000
iter:  31  00:10:08  -5.84  -4.37          -96.839405             +0.0000
iter:  32  00:10:22  -5.87  -4.50          -96.839407             +0.0000
iter:  33  00:10:36  -5.98  -4.64          -96.839409             +0.0000
iter:  34  00:10:50  -6.05  -4.65          -96.839410             +0.0000
iter:  35  00:11:04  -6.23  -4.69          -96.839411             +0.0000
iter:  36  00:11:18  -6.36  -4.92          -96.839412             +0.0000
iter:  37  00:11:32  -6.34  -4.98          -96.839413             +0.0000
iter:  38  00:11:46  -6.49  -5.02          -96.839413             +0.0000
iter:  39  00:12:00  -6.62  -5.11          -96.839414             +0.0000
iter:  40  00:12:14  -6.63  -5.23          -96.839414             +0.0000
iter:  41  00:12:28  -6.72  -5.27          -96.839414             +0.0000
iter:  42  00:12:42  -6.86  -5.34          -96.839415             +0.0000
iter:  43  00:12:56  -7.01  -5.31          -96.839415             +0.0000
iter:  44  00:13:10  -7.11  -5.25          -96.839415             +0.0000
iter:  45  00:13:24  -7.16  -5.30          -96.839415             +0.0000
iter:  46  00:13:38  -7.27  -5.27          -96.839415             +0.0000
iter:  47  00:13:52  -7.31  -5.30          -96.839415             -0.0000
iter:  48  00:14:06  -7.37  -5.28          -96.839415             +0.0000
iter:  49  00:14:23  -7.56  -5.31          -96.839415             +0.0000
iter:  50  00:14:39  -7.69  -5.40    -3.78 -96.839415             +0.0000
iter:  51  00:14:56  -7.80  -5.50    -4.09 -96.839416             +0.0000

Converged after 51 iterations.

Dipole moment: (0.002088, 0.060400, -0.000066) |e|*Ang

Total magnetic moment: (0.000000, 0.000000, 0.000000)
Local magnetic moments:
   0 O  ( 0.000000,  0.000000, -0.000888)
   1 O  ( 0.000000,  0.000000, -0.000409)
   2 O  ( 0.000000,  0.000000,  0.000076)
   3 O  ( 0.000000,  0.000000,  0.000965)
   4 Cr ( 0.000000,  0.000000,  2.209702)
   5 Cr ( 0.000000,  0.000000, -2.209469)
   6 Cr ( 0.000000,  0.000000, -2.209739)
   7 Cr ( 0.000000,  0.000000,  2.209549)
   8 O  ( 0.000000,  0.000000,  0.000799)
   9 O  ( 0.000000,  0.000000, -0.000571)

Energy contributions relative to reference atoms: (reference = -126274.181857)

Kinetic:        +34.250131
Potential:      -53.870239
External:        +0.000000
XC:             -78.952547
Entropy (-ST):   -0.000000
Local:           +1.733240
Free energy:    -96.839416
Extrapolated:   -96.839416

Spin contamination: 4.763388 electrons
Showing only first 2 kpts
                      Up                     Down
 Kpt  Band  Eigenvalues  Occupancy  Eigenvalues  Occupancy
  0    28      8.50466    1.00000      8.50567    1.00000
  0    29      8.76898    1.00000      8.76908    1.00000
  0    30     10.01392    0.00000     10.01720    0.00000
  0    31     10.02422    0.00000     10.02120    0.00000

  1    28      8.53276    1.00000      8.53472    1.00000
  1    29      8.81654    1.00000      8.81569    1.00000
  1    30      9.95698    0.00000      9.95317    0.00000
  1    31     10.00685    0.00000     10.01123    0.00000

Fermi level: 9.31667

Gap: 0.826 eV
Transition (v -> c):
  (s=1, k=785, n=29, [-0.00, -0.00, -0.00]) -> (s=1, k=1099, n=30, [0.17, 0.17, 0.17])
Writing to born-0.01-5y+.gpw (mode='all')