User:   madkru@c097.nifl.fysik.dtu.dk
Date:   Tue Jul  5 02:35:06 2022
Arch:   x86_64
Pid:    261120
Python: 3.8.6
gpaw:   /home/niflheim/madkru/new_venv/gpaw/gpaw (1f0dfc9eae)
_gpaw:  /home/niflheim/madkru/new_venv/gpaw/build/lib.linux-x86_64-skylake-3.8/
        _gpaw.cpython-38-x86_64-linux-gnu.so (c1e45bfab3)
ase:    /home/niflheim/madkru/new_venv/ase/ase (version 3.23.0b1-ca38c75a67)
numpy:  /home/modules/software/SciPy-bundle/2020.11-foss-2020b/lib/python3.8/site-packages/numpy (version 1.19.4)
scipy:  /home/modules/software/SciPy-bundle/2020.11-foss-2020b/lib/python3.8/site-packages/scipy (version 1.5.4)
units:  Angstrom and eV
cores: 40
OpenMP: False
OMP_NUM_THREADS: 1

Input parameters:
  convergence: {bands: occupied,
                density: 0.0001,
                eigenstates: 4e-08,
                energy: 0.0005,
                forces: 0.0001}
  kpts: {gamma: True,
         size: [12, 12, 12]}
  mode: {ecut: 600.0,
         gammacentered: False,
         name: pw}
  occupations: {fixmagmom: False,
                name: fermi-dirac,
                width: 0.001}
  symmetry: {point_group: False,
             time_reversal: False}

System changes: positions, numbers, cell, pbc, initial_charges, initial_magmoms

Initialize ...

O-setup:
  name: Oxygen
  id: 9b9d51c344dea68c822856295a461509
  Z: 8.0
  valence: 6
  core: 2
  charge: 0.0
  file: /home/modules/software/GPAW-setups/0.9.20000/O.LDA.gz
  compensation charges: gauss, rc=0.21, lmax=2
  cutoffs: 1.17(filt), 0.83(core),
  valence states:
                energy  radius
    2s(2.00)   -23.752   0.688
    2p(4.00)    -9.195   0.598
    *s           3.459   0.688
    *p          18.016   0.598
    *d           0.000   0.619

  Using partial waves for O as LCAO basis

Cr-setup:
  name: Chromium
  id: 444e8044bc0f91048286c984738d87f5
  Z: 24.0
  valence: 6
  core: 18
  charge: 0.0
  file: /home/modules/software/GPAW-setups/0.9.20000/Cr.LDA.gz
  compensation charges: gauss, rc=0.35, lmax=2
  cutoffs: 2.14(filt), 3.04(core),
  valence states:
                energy  radius
    4s(1.00)    -4.191   1.164
    4p(0.00)    -1.079   1.217
    3d(5.00)    -3.128   1.111
    *s          23.021   1.164
    *p          26.132   1.217
    *d          24.083   1.111

  Using partial waves for Cr as LCAO basis

Reference energy: -126274.181857

Spin-polarized calculation.
Magnetic moment: 0.000000

Convergence criteria:
  Maximum total energy change: 0.0005 eV / electron
  Maximum integral of absolute density change: 0.0001 electrons
  Maximum integral of absolute eigenstate change: 4e-08 eV^2
  Maximum change in atomic force: 0.0001 eV / Ang
  Maximum number of iterations: 333

Symmetries present (total): 1

  ( 1  0  0)
  ( 0  1  0)
  ( 0  0  1)

1728 k-points: 12 x 12 x 12 Monkhorst-Pack grid + [1/24,1/24,1/24]
1728 k-points in the irreducible part of the Brillouin zone
       k-points in crystal coordinates                weights
   0:    -0.41666667   -0.41666667   -0.41666667          1/1728
   1:    -0.41666667   -0.41666667   -0.33333333          1/1728
   2:    -0.41666667   -0.41666667   -0.25000000          1/1728
   3:    -0.41666667   -0.41666667   -0.16666667          1/1728
   4:    -0.41666667   -0.41666667   -0.08333333          1/1728
   5:    -0.41666667   -0.41666667   -0.00000000          1/1728
   6:    -0.41666667   -0.41666667    0.08333333          1/1728
   7:    -0.41666667   -0.41666667    0.16666667          1/1728
   8:    -0.41666667   -0.41666667    0.25000000          1/1728
   9:    -0.41666667   -0.41666667    0.33333333          1/1728
          ...
1727:     0.50000000    0.50000000    0.50000000          1/1728

Wave functions: Plane wave expansion
  Cutoff energy: 600.000 eV
  Number of coefficients (min, max): 2896, 2946
  Pulay-stress correction: 0.000000 eV/Ang^3 (de/decut=0.000000)
  Using FFTW library
  ScaLapack parameters: grid=1x1, blocksize=None
  Wavefunction extrapolation:
    Improved wavefunction reuse through dual PAW basis

Occupation numbers: Fermi-Dirac: width=0.0010 eV

Eigensolver
   Davidson(niter=2)

Densities:
  Coarse grid: 32*32*32 grid
  Fine grid: 64*64*64 grid
  Total Charge: 0.000000

Density mixing:
  Method: difference
  Backend: pulay
  Linear mixing parameter: 0.05
  Mixing with 5 old densities
  Damping of long wave oscillations: 50

Hamiltonian:
  XC and Coulomb potentials evaluated on a 64*64*64 grid
  Using the LDA Exchange-Correlation functional
  External potential:
    <gpaw.external.NoExternalPotential object at 0x2b3075763eb0>

Total number of cores used: 40
Parallelization over k-points: 40

Number of atoms: 10
Number of atomic orbitals: 60
Number of bands in calculation: 40
Number of valence electrons: 60
Bands to converge: occupied

... initialized

Initializing position-dependent things.

Density initialized from atomic densities
Creating initial wave functions:
  40 bands from LCAO basis set

            Cr

            Cr
           O
         O      O

        O      O
             O
            Cr

            Cr

Positions:
   0 O     -0.760209   -1.389250    1.148641    ( 0.0000,  0.0000,  0.0000)
   1 O     -1.582607   -0.036807   -1.147820    ( 0.0000,  0.0000,  0.0000)
   2 O     -0.823830    1.352257    1.148121    ( 0.0000,  0.0000,  0.0000)
   3 O      0.823830   -1.352257   -1.148121    ( 0.0000,  0.0000,  0.0000)
   4 Cr    -0.000004    0.000260   -4.693226    ( 0.0000,  0.0000,  2.0000)
   5 Cr    -0.000004    0.000111   -2.195940    ( 0.0000,  0.0000, -2.0000)
   6 Cr     0.000004    0.009740    4.693226    ( 0.0000,  0.0000, -2.0000)
   7 Cr     0.000004   -0.000111    2.195940    ( 0.0000,  0.0000,  2.0000)
   8 O      1.582607    0.036807    1.147820    ( 0.0000,  0.0000,  0.0000)
   9 O      0.760209    1.389250   -1.148641    ( 0.0000,  0.0000,  0.0000)

Unit cell:
           periodic     x           y           z      points  spacing
  1. axis:    yes    2.342815    1.352071    4.592704    32     0.1216
  2. axis:    yes   -2.342815    1.352071    4.592704    32     0.1216
  3. axis:    yes    0.000000   -2.704886    4.592923    32     0.1216

  Lengths:   5.330085   5.330085   5.330230
  Angles:   52.139511  52.139510  52.149782

Effective grid spacing dv^(1/3) = 0.1386

                     log10-error:           total        iterations:
           time      wfs    density  force  energy       poisson  magmom
iter:   1  02:42:37                       -100.566814             +0.0000
iter:   2  02:42:51  -0.70  -1.01          -99.836484             +0.0000
iter:   3  02:43:06  -0.13  -1.05          -97.280871             -0.0000
iter:   4  02:43:20  -1.16  -1.41          -97.358085             -0.0000
iter:   5  02:43:34  -1.15  -1.36          -97.357406             -0.0000
iter:   6  02:43:48  -0.76  -1.51          -96.977228             -0.0000
iter:   7  02:44:02  -1.59  -1.87          -96.868562             -0.0000
iter:   8  02:44:16  -1.77  -2.02          -96.844139             -0.0000
iter:   9  02:44:30  -1.94  -2.36          -96.842944             -0.0000
iter:  10  02:44:44  -2.70  -2.50          -96.841152             -0.0000
iter:  11  02:44:58  -2.83  -2.65          -96.840514             -0.0000
iter:  12  02:45:12  -3.17  -2.80          -96.838747             -0.0000
iter:  13  02:45:26  -3.29  -3.03          -96.838200             -0.0000
iter:  14  02:45:40  -3.61  -3.30          -96.838592             +0.0000
iter:  15  02:45:54  -3.74  -3.31          -96.838897             -0.0000
iter:  16  02:46:08  -3.93  -3.37          -96.838999             -0.0000
iter:  17  02:46:22  -4.03  -3.51          -96.839085             +0.0000
iter:  18  02:46:37  -4.18  -3.58          -96.839158             -0.0000
iter:  19  02:46:51  -4.39  -3.65          -96.839266             +0.0000
iter:  20  02:47:05  -4.49  -3.57          -96.839293             -0.0000
iter:  21  02:47:19  -4.63  -3.62          -96.839328             -0.0000
iter:  22  02:47:33  -4.79  -3.62          -96.839339             -0.0000
iter:  23  02:47:47  -4.88  -3.68          -96.839349             -0.0000
iter:  24  02:48:01  -5.06  -3.71          -96.839365             -0.0000
iter:  25  02:48:15  -5.17  -3.71          -96.839370             -0.0000
iter:  26  02:48:29  -5.21  -3.72          -96.839386             -0.0000
iter:  27  02:48:43  -5.38  -3.72          -96.839398             -0.0000
iter:  28  02:48:57  -5.34  -3.73          -96.839395             -0.0000
iter:  29  02:49:11  -5.44  -4.24          -96.839398             -0.0000
iter:  30  02:49:25  -5.64  -4.34          -96.839402             -0.0000
iter:  31  02:49:39  -5.77  -4.39          -96.839405             -0.0000
iter:  32  02:49:53  -5.83  -4.54          -96.839407             -0.0000
iter:  33  02:50:07  -5.90  -4.66          -96.839408             -0.0000
iter:  34  02:50:21  -5.99  -4.72          -96.839410             -0.0000
iter:  35  02:50:35  -6.14  -4.76          -96.839411             -0.0000
iter:  36  02:50:49  -6.24  -4.82          -96.839412             -0.0000
iter:  37  02:51:03  -6.31  -4.88          -96.839413             -0.0000
iter:  38  02:51:17  -6.47  -4.93          -96.839413             -0.0000
iter:  39  02:51:31  -6.63  -4.97          -96.839414             -0.0000
iter:  40  02:51:45  -6.74  -4.99          -96.839414             -0.0000
iter:  41  02:51:59  -6.78  -5.00          -96.839414             -0.0000
iter:  42  02:52:13  -6.97  -4.98          -96.839415             -0.0000
iter:  43  02:52:27  -7.08  -5.04          -96.839415             -0.0000
iter:  44  02:52:41  -7.07  -5.05          -96.839415             -0.0000
iter:  45  02:52:55  -7.22  -5.01          -96.839415             -0.0000
iter:  46  02:53:10  -7.29  -5.04          -96.839415             -0.0000
iter:  47  02:53:24  -7.17  -5.01          -96.839415             -0.0000
iter:  48  02:53:40  -7.49  -4.92          -96.839415             -0.0000
iter:  49  02:53:57  -7.46  -5.02    -3.55 -96.839415             -0.0000
iter:  50  02:54:13  -7.49  -5.18    -3.51 -96.839415             -0.0000
iter:  51  02:54:30  -7.53  -5.43    -3.49 -96.839416             -0.0000
iter:  52  02:54:46  -7.70  -5.59    -4.26 -96.839416             -0.0000

Converged after 52 iterations.

Dipole moment: (0.000183, 0.019192, -0.000331) |e|*Ang

Total magnetic moment: (0.000000, 0.000000, -0.000000)
Local magnetic moments:
   0 O  ( 0.000000,  0.000000, -0.000409)
   1 O  ( 0.000000,  0.000000, -0.000888)
   2 O  ( 0.000000,  0.000000,  0.000966)
   3 O  ( 0.000000,  0.000000,  0.000076)
   4 Cr ( 0.000000,  0.000000,  2.209571)
   5 Cr ( 0.000000,  0.000000, -2.209754)
   6 Cr ( 0.000000,  0.000000, -2.209493)
   7 Cr ( 0.000000,  0.000000,  2.209717)
   8 O  ( 0.000000,  0.000000, -0.000571)
   9 O  ( 0.000000,  0.000000,  0.000800)

Energy contributions relative to reference atoms: (reference = -126274.181857)

Kinetic:        +34.244623
Potential:      -53.863626
External:        +0.000000
XC:             -78.952219
Entropy (-ST):   -0.000000
Local:           +1.731806
Free energy:    -96.839416
Extrapolated:   -96.839416

Spin contamination: 4.763424 electrons
Showing only first 2 kpts
                      Up                     Down
 Kpt  Band  Eigenvalues  Occupancy  Eigenvalues  Occupancy
  0    28      8.50459    1.00000      8.50560    1.00000
  0    29      8.76890    1.00000      8.76901    1.00000
  0    30     10.01386    0.00000     10.01714    0.00000
  0    31     10.02416    0.00000     10.02114    0.00000

  1    28      8.53269    1.00000      8.53465    1.00000
  1    29      8.81646    1.00000      8.81561    1.00000
  1    30      9.95692    0.00000      9.95310    0.00000
  1    31     10.00679    0.00000     10.01117    0.00000

Fermi level: 9.31577

Gap: 0.826 eV
Transition (v -> c):
  (s=1, k=785, n=29, [-0.00, -0.00, -0.00]) -> (s=1, k=1099, n=30, [0.17, 0.17, 0.17])
Writing to born-0.01-6y+.gpw (mode='all')