User:   madkru@c097.nifl.fysik.dtu.dk
Date:   Tue Jul  5 01:16:20 2022
Arch:   x86_64
Pid:    261120
Python: 3.8.6
gpaw:   /home/niflheim/madkru/new_venv/gpaw/gpaw (1f0dfc9eae)
_gpaw:  /home/niflheim/madkru/new_venv/gpaw/build/lib.linux-x86_64-skylake-3.8/
        _gpaw.cpython-38-x86_64-linux-gnu.so (c1e45bfab3)
ase:    /home/niflheim/madkru/new_venv/ase/ase (version 3.23.0b1-ca38c75a67)
numpy:  /home/modules/software/SciPy-bundle/2020.11-foss-2020b/lib/python3.8/site-packages/numpy (version 1.19.4)
scipy:  /home/modules/software/SciPy-bundle/2020.11-foss-2020b/lib/python3.8/site-packages/scipy (version 1.5.4)
units:  Angstrom and eV
cores: 40
OpenMP: False
OMP_NUM_THREADS: 1

Input parameters:
  convergence: {bands: occupied,
                density: 0.0001,
                eigenstates: 4e-08,
                energy: 0.0005,
                forces: 0.0001}
  kpts: {gamma: True,
         size: [12, 12, 12]}
  mode: {ecut: 600.0,
         gammacentered: False,
         name: pw}
  occupations: {fixmagmom: False,
                name: fermi-dirac,
                width: 0.001}
  symmetry: {point_group: False,
             time_reversal: False}

System changes: positions, numbers, cell, pbc, initial_charges, initial_magmoms

Initialize ...

O-setup:
  name: Oxygen
  id: 9b9d51c344dea68c822856295a461509
  Z: 8.0
  valence: 6
  core: 2
  charge: 0.0
  file: /home/modules/software/GPAW-setups/0.9.20000/O.LDA.gz
  compensation charges: gauss, rc=0.21, lmax=2
  cutoffs: 1.17(filt), 0.83(core),
  valence states:
                energy  radius
    2s(2.00)   -23.752   0.688
    2p(4.00)    -9.195   0.598
    *s           3.459   0.688
    *p          18.016   0.598
    *d           0.000   0.619

  Using partial waves for O as LCAO basis

Cr-setup:
  name: Chromium
  id: 444e8044bc0f91048286c984738d87f5
  Z: 24.0
  valence: 6
  core: 18
  charge: 0.0
  file: /home/modules/software/GPAW-setups/0.9.20000/Cr.LDA.gz
  compensation charges: gauss, rc=0.35, lmax=2
  cutoffs: 2.14(filt), 3.04(core),
  valence states:
                energy  radius
    4s(1.00)    -4.191   1.164
    4p(0.00)    -1.079   1.217
    3d(5.00)    -3.128   1.111
    *s          23.021   1.164
    *p          26.132   1.217
    *d          24.083   1.111

  Using partial waves for Cr as LCAO basis

Reference energy: -126274.181857

Spin-polarized calculation.
Magnetic moment: 0.000000

Convergence criteria:
  Maximum total energy change: 0.0005 eV / electron
  Maximum integral of absolute density change: 0.0001 electrons
  Maximum integral of absolute eigenstate change: 4e-08 eV^2
  Maximum change in atomic force: 0.0001 eV / Ang
  Maximum number of iterations: 333

Symmetries present (total): 1

  ( 1  0  0)
  ( 0  1  0)
  ( 0  0  1)

1728 k-points: 12 x 12 x 12 Monkhorst-Pack grid + [1/24,1/24,1/24]
1728 k-points in the irreducible part of the Brillouin zone
       k-points in crystal coordinates                weights
   0:    -0.41666667   -0.41666667   -0.41666667          1/1728
   1:    -0.41666667   -0.41666667   -0.33333333          1/1728
   2:    -0.41666667   -0.41666667   -0.25000000          1/1728
   3:    -0.41666667   -0.41666667   -0.16666667          1/1728
   4:    -0.41666667   -0.41666667   -0.08333333          1/1728
   5:    -0.41666667   -0.41666667   -0.00000000          1/1728
   6:    -0.41666667   -0.41666667    0.08333333          1/1728
   7:    -0.41666667   -0.41666667    0.16666667          1/1728
   8:    -0.41666667   -0.41666667    0.25000000          1/1728
   9:    -0.41666667   -0.41666667    0.33333333          1/1728
          ...
1727:     0.50000000    0.50000000    0.50000000          1/1728

Wave functions: Plane wave expansion
  Cutoff energy: 600.000 eV
  Number of coefficients (min, max): 2896, 2946
  Pulay-stress correction: 0.000000 eV/Ang^3 (de/decut=0.000000)
  Using FFTW library
  ScaLapack parameters: grid=1x1, blocksize=None
  Wavefunction extrapolation:
    Improved wavefunction reuse through dual PAW basis

Occupation numbers: Fermi-Dirac: width=0.0010 eV

Eigensolver
   Davidson(niter=2)

Densities:
  Coarse grid: 32*32*32 grid
  Fine grid: 64*64*64 grid
  Total Charge: 0.000000

Density mixing:
  Method: difference
  Backend: pulay
  Linear mixing parameter: 0.05
  Mixing with 5 old densities
  Damping of long wave oscillations: 50

Hamiltonian:
  XC and Coulomb potentials evaluated on a 64*64*64 grid
  Using the LDA Exchange-Correlation functional
  External potential:
    <gpaw.external.NoExternalPotential object at 0x2b30306eb460>

Total number of cores used: 40
Parallelization over k-points: 40

Number of atoms: 10
Number of atomic orbitals: 60
Number of bands in calculation: 40
Number of valence electrons: 60
Bands to converge: occupied

... initialized

Initializing position-dependent things.

Density initialized from atomic densities
Creating initial wave functions:
  40 bands from LCAO basis set

            Cr

            Cr
           O
         O      O

        O      O
             O
            Cr

            Cr

Positions:
   0 O     -0.760209   -1.389250    1.148641    ( 0.0000,  0.0000,  0.0000)
   1 O     -1.582607   -0.036807   -1.147820    ( 0.0000,  0.0000,  0.0000)
   2 O     -0.823830    1.352257    1.148121    ( 0.0000,  0.0000,  0.0000)
   3 O      0.823830   -1.352257   -1.148121    ( 0.0000,  0.0000,  0.0000)
   4 Cr    -0.000004    0.000260   -4.693226    ( 0.0000,  0.0000,  2.0000)
   5 Cr    -0.000004    0.000111   -2.195940    ( 0.0000,  0.0000, -2.0000)
   6 Cr    -0.009996   -0.000260    4.693226    ( 0.0000,  0.0000, -2.0000)
   7 Cr     0.000004   -0.000111    2.195940    ( 0.0000,  0.0000,  2.0000)
   8 O      1.582607    0.036807    1.147820    ( 0.0000,  0.0000,  0.0000)
   9 O      0.760209    1.389250   -1.148641    ( 0.0000,  0.0000,  0.0000)

Unit cell:
           periodic     x           y           z      points  spacing
  1. axis:    yes    2.342815    1.352071    4.592704    32     0.1216
  2. axis:    yes   -2.342815    1.352071    4.592704    32     0.1216
  3. axis:    yes    0.000000   -2.704886    4.592923    32     0.1216

  Lengths:   5.330085   5.330085   5.330230
  Angles:   52.139511  52.139510  52.149782

Effective grid spacing dv^(1/3) = 0.1386

                     log10-error:           total        iterations:
           time      wfs    density  force  energy       poisson  magmom
iter:   1  01:23:53                       -100.566815             +0.0000
iter:   2  01:24:07  -0.70  -1.01          -99.836477             +0.0000
iter:   3  01:24:21  -0.13  -1.05          -97.280860             -0.0000
iter:   4  01:24:35  -1.16  -1.41          -97.358078             -0.0000
iter:   5  01:24:49  -1.15  -1.36          -97.357417             -0.0000
iter:   6  01:25:03  -0.76  -1.51          -96.977225             -0.0000
iter:   7  01:25:17  -1.59  -1.87          -96.868554             -0.0000
iter:   8  01:25:31  -1.77  -2.02          -96.844138             -0.0000
iter:   9  01:25:45  -1.94  -2.36          -96.842928             -0.0000
iter:  10  01:25:59  -2.70  -2.51          -96.841196             -0.0000
iter:  11  01:26:13  -2.84  -2.65          -96.840491             -0.0000
iter:  12  01:26:27  -3.17  -2.80          -96.838716             -0.0000
iter:  13  01:26:41  -3.29  -3.04          -96.838201             -0.0000
iter:  14  01:26:55  -3.61  -3.30          -96.838594             -0.0000
iter:  15  01:27:09  -3.76  -3.32          -96.838886             -0.0000
iter:  16  01:27:23  -3.94  -3.38          -96.839002             -0.0000
iter:  17  01:27:37  -4.04  -3.51          -96.839090             +0.0000
iter:  18  01:27:51  -4.19  -3.58          -96.839160             -0.0000
iter:  19  01:28:05  -4.40  -3.65          -96.839265             -0.0000
iter:  20  01:28:19  -4.37  -3.58          -96.839282             +0.0000
iter:  21  01:28:33  -4.59  -3.70          -96.839306             -0.0000
iter:  22  01:28:47  -4.79  -3.92          -96.839332             +0.0000
iter:  23  01:29:01  -4.95  -4.06          -96.839354             -0.0000
iter:  24  01:29:15  -4.99  -4.00          -96.839368             -0.0000
iter:  25  01:29:29  -5.16  -4.05          -96.839385             -0.0000
iter:  26  01:29:43  -5.22  -3.93          -96.839388             -0.0000
iter:  27  01:29:57  -5.40  -4.02          -96.839394             -0.0000
iter:  28  01:30:11  -5.45  -4.03          -96.839402             -0.0000
iter:  29  01:30:25  -5.59  -4.06          -96.839405             -0.0000
iter:  30  01:30:39  -5.66  -4.07          -96.839409             -0.0000
iter:  31  01:30:53  -5.81  -4.04          -96.839412             -0.0000
iter:  32  01:31:07  -5.74  -4.04          -96.839408             -0.0000
iter:  33  01:31:21  -5.83  -4.25          -96.839409             -0.0000
iter:  34  01:31:35  -5.88  -4.35          -96.839410             -0.0000
iter:  35  01:31:49  -6.02  -4.48          -96.839411             -0.0000
iter:  36  01:32:03  -6.19  -4.53          -96.839412             -0.0000
iter:  37  01:32:17  -6.30  -4.64          -96.839413             -0.0000
iter:  38  01:32:31  -6.36  -4.74          -96.839413             -0.0000
iter:  39  01:32:45  -6.49  -4.77          -96.839413             -0.0000
iter:  40  01:32:59  -6.59  -4.77          -96.839414             -0.0000
iter:  41  01:33:13  -6.77  -4.79          -96.839414             -0.0000
iter:  42  01:33:27  -6.80  -4.94          -96.839414             -0.0000
iter:  43  01:33:41  -6.88  -4.96          -96.839414             -0.0000
iter:  44  01:33:55  -7.01  -5.04          -96.839415             -0.0000
iter:  45  01:34:09  -7.06  -5.07          -96.839415             -0.0000
iter:  46  01:34:23  -7.13  -5.26          -96.839415             -0.0000
iter:  47  01:34:37  -7.26  -5.27          -96.839415             -0.0000
iter:  48  01:34:51  -7.36  -5.37          -96.839415             -0.0000
iter:  49  01:35:08  -7.42  -5.43          -96.839415             -0.0000
iter:  50  01:35:24  -7.50  -5.44    -4.02 -96.839415             -0.0000

Converged after 50 iterations.

Dipole moment: (-0.019119, 0.000106, -0.000325) |e|*Ang

Total magnetic moment: (0.000000, 0.000000, -0.000000)
Local magnetic moments:
   0 O  ( 0.000000,  0.000000,  0.000806)
   1 O  ( 0.000000,  0.000000,  0.000167)
   2 O  ( 0.000000,  0.000000, -0.000274)
   3 O  ( 0.000000,  0.000000, -0.000797)
   4 Cr ( 0.000000,  0.000000,  2.209572)
   5 Cr ( 0.000000,  0.000000, -2.209721)
   6 Cr ( 0.000000,  0.000000, -2.209493)
   7 Cr ( 0.000000,  0.000000,  2.209689)
   8 O  ( 0.000000,  0.000000, -0.000548)
   9 O  ( 0.000000,  0.000000,  0.000614)

Energy contributions relative to reference atoms: (reference = -126274.181857)

Kinetic:        +34.237480
Potential:      -53.859165
External:        +0.000000
XC:             -78.951153
Entropy (-ST):   -0.000000
Local:           +1.733422
Free energy:    -96.839415
Extrapolated:   -96.839415

Spin contamination: 4.763414 electrons
Showing only first 2 kpts
                      Up                     Down
 Kpt  Band  Eigenvalues  Occupancy  Eigenvalues  Occupancy
  0    28      8.50475    1.00000      8.50573    1.00000
  0    29      8.76893    1.00000      8.76899    1.00000
  0    30     10.01382    0.00000     10.01714    0.00000
  0    31     10.02413    0.00000     10.02104    0.00000

  1    28      8.53356    1.00000      8.53351    1.00000
  1    29      8.81330    1.00000      8.81499    1.00000
  1    30      9.95706    0.00000      9.95421    0.00000
  1    31     10.00578    0.00000     10.00986    0.00000

Fermi level: 9.47957

Gap: 0.826 eV
Transition (v -> c):
  (s=1, k=785, n=29, [-0.00, -0.00, -0.00]) -> (s=1, k=471, n=30, [-0.17, -0.17, -0.17])
Writing to born-0.01-6x-.gpw (mode='all')