User:   madkru@c097.nifl.fysik.dtu.dk
Date:   Tue Jul  5 09:23:27 2022
Arch:   x86_64
Pid:    261120
Python: 3.8.6
gpaw:   /home/niflheim/madkru/new_venv/gpaw/gpaw (1f0dfc9eae)
_gpaw:  /home/niflheim/madkru/new_venv/gpaw/build/lib.linux-x86_64-skylake-3.8/
        _gpaw.cpython-38-x86_64-linux-gnu.so (c1e45bfab3)
ase:    /home/niflheim/madkru/new_venv/ase/ase (version 3.23.0b1-ca38c75a67)
numpy:  /home/modules/software/SciPy-bundle/2020.11-foss-2020b/lib/python3.8/site-packages/numpy (version 1.19.4)
scipy:  /home/modules/software/SciPy-bundle/2020.11-foss-2020b/lib/python3.8/site-packages/scipy (version 1.5.4)
units:  Angstrom and eV
cores: 40
OpenMP: False
OMP_NUM_THREADS: 1

Input parameters:
  convergence: {bands: occupied,
                density: 0.0001,
                eigenstates: 4e-08,
                energy: 0.0005,
                forces: 0.0001}
  kpts: {gamma: True,
         size: [12, 12, 12]}
  mode: {ecut: 600.0,
         gammacentered: False,
         name: pw}
  occupations: {fixmagmom: False,
                name: fermi-dirac,
                width: 0.001}
  symmetry: {point_group: False,
             time_reversal: False}

System changes: positions, numbers, cell, pbc, initial_charges, initial_magmoms

Initialize ...

O-setup:
  name: Oxygen
  id: 9b9d51c344dea68c822856295a461509
  Z: 8.0
  valence: 6
  core: 2
  charge: 0.0
  file: /home/modules/software/GPAW-setups/0.9.20000/O.LDA.gz
  compensation charges: gauss, rc=0.21, lmax=2
  cutoffs: 1.17(filt), 0.83(core),
  valence states:
                energy  radius
    2s(2.00)   -23.752   0.688
    2p(4.00)    -9.195   0.598
    *s           3.459   0.688
    *p          18.016   0.598
    *d           0.000   0.619

  Using partial waves for O as LCAO basis

Cr-setup:
  name: Chromium
  id: 444e8044bc0f91048286c984738d87f5
  Z: 24.0
  valence: 6
  core: 18
  charge: 0.0
  file: /home/modules/software/GPAW-setups/0.9.20000/Cr.LDA.gz
  compensation charges: gauss, rc=0.35, lmax=2
  cutoffs: 2.14(filt), 3.04(core),
  valence states:
                energy  radius
    4s(1.00)    -4.191   1.164
    4p(0.00)    -1.079   1.217
    3d(5.00)    -3.128   1.111
    *s          23.021   1.164
    *p          26.132   1.217
    *d          24.083   1.111

  Using partial waves for Cr as LCAO basis

Reference energy: -126274.181857

Spin-polarized calculation.
Magnetic moment: 0.000000

Convergence criteria:
  Maximum total energy change: 0.0005 eV / electron
  Maximum integral of absolute density change: 0.0001 electrons
  Maximum integral of absolute eigenstate change: 4e-08 eV^2
  Maximum change in atomic force: 0.0001 eV / Ang
  Maximum number of iterations: 333

Symmetries present (total): 1

  ( 1  0  0)
  ( 0  1  0)
  ( 0  0  1)

1728 k-points: 12 x 12 x 12 Monkhorst-Pack grid + [1/24,1/24,1/24]
1728 k-points in the irreducible part of the Brillouin zone
       k-points in crystal coordinates                weights
   0:    -0.41666667   -0.41666667   -0.41666667          1/1728
   1:    -0.41666667   -0.41666667   -0.33333333          1/1728
   2:    -0.41666667   -0.41666667   -0.25000000          1/1728
   3:    -0.41666667   -0.41666667   -0.16666667          1/1728
   4:    -0.41666667   -0.41666667   -0.08333333          1/1728
   5:    -0.41666667   -0.41666667   -0.00000000          1/1728
   6:    -0.41666667   -0.41666667    0.08333333          1/1728
   7:    -0.41666667   -0.41666667    0.16666667          1/1728
   8:    -0.41666667   -0.41666667    0.25000000          1/1728
   9:    -0.41666667   -0.41666667    0.33333333          1/1728
          ...
1727:     0.50000000    0.50000000    0.50000000          1/1728

Wave functions: Plane wave expansion
  Cutoff energy: 600.000 eV
  Number of coefficients (min, max): 2896, 2946
  Pulay-stress correction: 0.000000 eV/Ang^3 (de/decut=0.000000)
  Using FFTW library
  ScaLapack parameters: grid=1x1, blocksize=None
  Wavefunction extrapolation:
    Improved wavefunction reuse through dual PAW basis

Occupation numbers: Fermi-Dirac: width=0.0010 eV

Eigensolver
   Davidson(niter=2)

Densities:
  Coarse grid: 32*32*32 grid
  Fine grid: 64*64*64 grid
  Total Charge: 0.000000

Density mixing:
  Method: difference
  Backend: pulay
  Linear mixing parameter: 0.05
  Mixing with 5 old densities
  Damping of long wave oscillations: 50

Hamiltonian:
  XC and Coulomb potentials evaluated on a 64*64*64 grid
  Using the LDA Exchange-Correlation functional
  External potential:
    <gpaw.external.NoExternalPotential object at 0x2b30307360a0>

Total number of cores used: 40
Parallelization over k-points: 40

Number of atoms: 10
Number of atomic orbitals: 60
Number of bands in calculation: 40
Number of valence electrons: 60
Bands to converge: occupied

... initialized

Initializing position-dependent things.

Density initialized from atomic densities
Creating initial wave functions:
  40 bands from LCAO basis set

            Cr

            Cr
           O
         O      O

        O      O
             O
            Cr

            Cr

Positions:
   0 O     -0.760209   -1.389250    1.148641    ( 0.0000,  0.0000,  0.0000)
   1 O     -1.582607   -0.036807   -1.147820    ( 0.0000,  0.0000,  0.0000)
   2 O     -0.823830    1.352257    1.148121    ( 0.0000,  0.0000,  0.0000)
   3 O      0.823830   -1.352257   -1.148121    ( 0.0000,  0.0000,  0.0000)
   4 Cr    -0.000004    0.000260   -4.693226    ( 0.0000,  0.0000,  2.0000)
   5 Cr    -0.000004    0.000111   -2.195940    ( 0.0000,  0.0000, -2.0000)
   6 Cr     0.000004   -0.000260    4.693226    ( 0.0000,  0.0000, -2.0000)
   7 Cr     0.000004   -0.000111    2.195940    ( 0.0000,  0.0000,  2.0000)
   8 O      1.582607    0.036807    1.147820    ( 0.0000,  0.0000,  0.0000)
   9 O      0.750209    1.389250   -1.148641    ( 0.0000,  0.0000,  0.0000)

Unit cell:
           periodic     x           y           z      points  spacing
  1. axis:    yes    2.342815    1.352071    4.592704    32     0.1216
  2. axis:    yes   -2.342815    1.352071    4.592704    32     0.1216
  3. axis:    yes    0.000000   -2.704886    4.592923    32     0.1216

  Lengths:   5.330085   5.330085   5.330230
  Angles:   52.139511  52.139510  52.149782

Effective grid spacing dv^(1/3) = 0.1386

                     log10-error:           total        iterations:
           time      wfs    density  force  energy       poisson  magmom
iter:   1  09:31:02                       -100.567958             -0.0000
iter:   2  09:31:16  -0.70  -1.01          -99.838513             -0.0000
iter:   3  09:31:30  -0.13  -1.05          -97.281429             -0.0000
iter:   4  09:31:44  -1.16  -1.41          -97.358480             +0.0000
iter:   5  09:31:58  -1.15  -1.36          -97.359377             +0.0000
iter:   6  09:32:13  -0.76  -1.51          -96.977687             +0.0000
iter:   7  09:32:27  -1.59  -1.87          -96.869592             +0.0000
iter:   8  09:32:41  -1.76  -2.02          -96.844988             +0.0000
iter:   9  09:32:55  -1.93  -2.35          -96.843128             +0.0000
iter:  10  09:33:09  -2.74  -2.50          -96.839257             +0.0000
iter:  11  09:33:23  -2.85  -2.74          -96.842502             +0.0000
iter:  12  09:33:37  -3.17  -2.72          -96.842531             +0.0000
iter:  13  09:33:51  -3.07  -2.74          -96.838598             +0.0000
iter:  14  09:34:05  -3.19  -2.92          -96.838767             +0.0000
iter:  15  09:34:19  -3.60  -2.97          -96.838980             +0.0000
iter:  16  09:34:33  -3.85  -3.13          -96.839076             +0.0000
iter:  17  09:34:47  -3.77  -3.28          -96.839221             +0.0000
iter:  18  09:35:02  -3.88  -3.29          -96.839298             +0.0000
iter:  19  09:35:16  -4.15  -3.55          -96.839331             +0.0000
iter:  20  09:35:30  -4.17  -3.67          -96.839387             +0.0000
iter:  21  09:35:44  -4.42  -3.54          -96.839402             +0.0000
iter:  22  09:35:58  -4.55  -3.81          -96.839451             +0.0000
iter:  23  09:36:12  -4.76  -3.64          -96.839469             +0.0000
iter:  24  09:36:26  -4.70  -3.72          -96.839478             +0.0000
iter:  25  09:36:40  -4.97  -4.30          -96.839494             -0.0000
iter:  26  09:36:54  -5.15  -4.30          -96.839507             +0.0000
iter:  27  09:37:08  -5.27  -4.28          -96.839518             +0.0000
iter:  28  09:37:22  -5.34  -4.19          -96.839524             -0.0000
iter:  29  09:37:36  -5.49  -4.20          -96.839532             -0.0000
iter:  30  09:37:50  -5.56  -4.18          -96.839535             -0.0000
iter:  31  09:38:04  -5.71  -4.21          -96.839538             -0.0000
iter:  32  09:38:18  -5.73  -4.24          -96.839541             -0.0000
iter:  33  09:38:32  -5.90  -4.22          -96.839543             -0.0000
iter:  34  09:38:46  -6.04  -4.22          -96.839544             -0.0000
iter:  35  09:39:00  -6.01  -4.25          -96.839544             -0.0000
iter:  36  09:39:14  -6.15  -4.41          -96.839545             -0.0000
iter:  37  09:39:28  -6.16  -4.57          -96.839545             -0.0000
iter:  38  09:39:43  -6.30  -4.81          -96.839546             -0.0000
iter:  39  09:39:57  -6.41  -4.93          -96.839546             -0.0000
iter:  40  09:40:11  -6.47  -5.02          -96.839547             -0.0000
iter:  41  09:40:25  -6.56  -5.09          -96.839547             +0.0000
iter:  42  09:40:39  -6.68  -5.23          -96.839548             +0.0000
iter:  43  09:40:53  -6.88  -5.37          -96.839548             +0.0000
iter:  44  09:41:07  -7.02  -5.38          -96.839548             +0.0000
iter:  45  09:41:21  -7.10  -5.38          -96.839548             +0.0000
iter:  46  09:41:35  -7.23  -5.30          -96.839548             -0.0000
iter:  47  09:41:49  -7.25  -5.41          -96.839548             -0.0000
iter:  48  09:42:03  -7.31  -5.40          -96.839548             -0.0000
iter:  49  09:42:20  -7.44  -5.39          -96.839549             -0.0000
iter:  50  09:42:37  -7.42  -5.29    -3.43 -96.839549             -0.0000
iter:  51  09:42:53  -7.55  -5.47    -3.65 -96.839549             -0.0000
iter:  52  09:43:10  -7.65  -5.58    -4.07 -96.839549             -0.0000

Converged after 52 iterations.

Dipole moment: (-0.046927, 0.020285, 0.070989) |e|*Ang

Total magnetic moment: (0.000000, 0.000000, -0.000000)
Local magnetic moments:
   0 O  ( 0.000000,  0.000000, -0.000251)
   1 O  ( 0.000000,  0.000000, -0.000046)
   2 O  ( 0.000000,  0.000000, -0.000139)
   3 O  ( 0.000000,  0.000000,  0.000093)
   4 Cr ( 0.000000,  0.000000,  2.212215)
   5 Cr ( 0.000000,  0.000000, -2.211286)
   6 Cr ( 0.000000,  0.000000, -2.209542)
   7 Cr ( 0.000000,  0.000000,  2.210074)
   8 O  ( 0.000000,  0.000000,  0.000219)
   9 O  ( 0.000000,  0.000000, -0.001187)

Energy contributions relative to reference atoms: (reference = -126274.181857)

Kinetic:        +34.368109
Potential:      -53.964398
External:        +0.000000
XC:             -78.976336
Entropy (-ST):   -0.000000
Local:           +1.733076
Free energy:    -96.839549
Extrapolated:   -96.839549

Spin contamination: 4.765948 electrons
Showing only first 2 kpts
                      Up                     Down
 Kpt  Band  Eigenvalues  Occupancy  Eigenvalues  Occupancy
  0    28      8.50295    1.00000      8.51009    1.00000
  0    29      8.76743    1.00000      8.77146    1.00000
  0    30     10.01746    0.00000     10.01742    0.00000
  0    31     10.02078    0.00000     10.02338    0.00000

  1    28      8.53215    1.00000      8.53678    1.00000
  1    29      8.81217    1.00000      8.81678    1.00000
  1    30      9.95562    0.00000      9.95751    0.00000
  1    31     10.00953    0.00000     10.01036    0.00000

Fermi level: 9.31594

Gap: 0.822 eV
Transition (v -> c):
  (s=1, k=785, n=29, [-0.00, -0.00, -0.00]) -> (s=0, k=1099, n=30, [0.17, 0.17, 0.17])
Writing to born-0.01-9x-.gpw (mode='all')