User:   madkru@c097.nifl.fysik.dtu.dk
Date:   Mon Jul  4 14:28:28 2022
Arch:   x86_64
Pid:    261120
Python: 3.8.6
gpaw:   /home/niflheim/madkru/new_venv/gpaw/gpaw (1f0dfc9eae)
_gpaw:  /home/niflheim/madkru/new_venv/gpaw/build/lib.linux-x86_64-skylake-3.8/
        _gpaw.cpython-38-x86_64-linux-gnu.so (c1e45bfab3)
ase:    /home/niflheim/madkru/new_venv/ase/ase (version 3.23.0b1-ca38c75a67)
numpy:  /home/modules/software/SciPy-bundle/2020.11-foss-2020b/lib/python3.8/site-packages/numpy (version 1.19.4)
scipy:  /home/modules/software/SciPy-bundle/2020.11-foss-2020b/lib/python3.8/site-packages/scipy (version 1.5.4)
units:  Angstrom and eV
cores: 40
OpenMP: False
OMP_NUM_THREADS: 1

Input parameters:
  convergence: {bands: occupied,
                density: 0.0001,
                eigenstates: 4e-08,
                energy: 0.0005,
                forces: 0.0001}
  kpts: {gamma: True,
         size: [12, 12, 12]}
  mode: {ecut: 600.0,
         gammacentered: False,
         name: pw}
  occupations: {fixmagmom: False,
                name: fermi-dirac,
                width: 0.001}
  symmetry: {point_group: False,
             time_reversal: False}

System changes: positions, numbers, cell, pbc, initial_charges, initial_magmoms

Initialize ...

O-setup:
  name: Oxygen
  id: 9b9d51c344dea68c822856295a461509
  Z: 8.0
  valence: 6
  core: 2
  charge: 0.0
  file: /home/modules/software/GPAW-setups/0.9.20000/O.LDA.gz
  compensation charges: gauss, rc=0.21, lmax=2
  cutoffs: 1.17(filt), 0.83(core),
  valence states:
                energy  radius
    2s(2.00)   -23.752   0.688
    2p(4.00)    -9.195   0.598
    *s           3.459   0.688
    *p          18.016   0.598
    *d           0.000   0.619

  Using partial waves for O as LCAO basis

Cr-setup:
  name: Chromium
  id: 444e8044bc0f91048286c984738d87f5
  Z: 24.0
  valence: 6
  core: 18
  charge: 0.0
  file: /home/modules/software/GPAW-setups/0.9.20000/Cr.LDA.gz
  compensation charges: gauss, rc=0.35, lmax=2
  cutoffs: 2.14(filt), 3.04(core),
  valence states:
                energy  radius
    4s(1.00)    -4.191   1.164
    4p(0.00)    -1.079   1.217
    3d(5.00)    -3.128   1.111
    *s          23.021   1.164
    *p          26.132   1.217
    *d          24.083   1.111

  Using partial waves for Cr as LCAO basis

Reference energy: -126274.181857

Spin-polarized calculation.
Magnetic moment: 0.000000

Convergence criteria:
  Maximum total energy change: 0.0005 eV / electron
  Maximum integral of absolute density change: 0.0001 electrons
  Maximum integral of absolute eigenstate change: 4e-08 eV^2
  Maximum change in atomic force: 0.0001 eV / Ang
  Maximum number of iterations: 333

Symmetries present (total): 1

  ( 1  0  0)
  ( 0  1  0)
  ( 0  0  1)

1728 k-points: 12 x 12 x 12 Monkhorst-Pack grid + [1/24,1/24,1/24]
1728 k-points in the irreducible part of the Brillouin zone
       k-points in crystal coordinates                weights
   0:    -0.41666667   -0.41666667   -0.41666667          1/1728
   1:    -0.41666667   -0.41666667   -0.33333333          1/1728
   2:    -0.41666667   -0.41666667   -0.25000000          1/1728
   3:    -0.41666667   -0.41666667   -0.16666667          1/1728
   4:    -0.41666667   -0.41666667   -0.08333333          1/1728
   5:    -0.41666667   -0.41666667   -0.00000000          1/1728
   6:    -0.41666667   -0.41666667    0.08333333          1/1728
   7:    -0.41666667   -0.41666667    0.16666667          1/1728
   8:    -0.41666667   -0.41666667    0.25000000          1/1728
   9:    -0.41666667   -0.41666667    0.33333333          1/1728
          ...
1727:     0.50000000    0.50000000    0.50000000          1/1728

Wave functions: Plane wave expansion
  Cutoff energy: 600.000 eV
  Number of coefficients (min, max): 2896, 2946
  Pulay-stress correction: 0.000000 eV/Ang^3 (de/decut=0.000000)
  Using FFTW library
  ScaLapack parameters: grid=1x1, blocksize=None
  Wavefunction extrapolation:
    Improved wavefunction reuse through dual PAW basis

Occupation numbers: Fermi-Dirac: width=0.0010 eV

Eigensolver
   Davidson(niter=2)

Densities:
  Coarse grid: 32*32*32 grid
  Fine grid: 64*64*64 grid
  Total Charge: 0.000000

Density mixing:
  Method: difference
  Backend: pulay
  Linear mixing parameter: 0.05
  Mixing with 5 old densities
  Damping of long wave oscillations: 50

Hamiltonian:
  XC and Coulomb potentials evaluated on a 64*64*64 grid
  Using the LDA Exchange-Correlation functional
  External potential:
    <gpaw.external.NoExternalPotential object at 0x2b3041520760>

Total number of cores used: 40
Parallelization over k-points: 40

Number of atoms: 10
Number of atomic orbitals: 60
Number of bands in calculation: 40
Number of valence electrons: 60
Bands to converge: occupied

... initialized

Initializing position-dependent things.

Density initialized from atomic densities
Creating initial wave functions:
  40 bands from LCAO basis set

            Cr

            Cr
           O
         O      O

        O      O
             O
            Cr

            Cr

Positions:
   0 O     -0.760209   -1.389250    1.148641    ( 0.0000,  0.0000,  0.0000)
   1 O     -1.582607   -0.036807   -1.147820    ( 0.0000,  0.0000,  0.0000)
   2 O     -0.833830    1.352257    1.148121    ( 0.0000,  0.0000,  0.0000)
   3 O      0.823830   -1.352257   -1.148121    ( 0.0000,  0.0000,  0.0000)
   4 Cr    -0.000004    0.000260   -4.693226    ( 0.0000,  0.0000,  2.0000)
   5 Cr    -0.000004    0.000111   -2.195940    ( 0.0000,  0.0000, -2.0000)
   6 Cr     0.000004   -0.000260    4.693226    ( 0.0000,  0.0000, -2.0000)
   7 Cr     0.000004   -0.000111    2.195940    ( 0.0000,  0.0000,  2.0000)
   8 O      1.582607    0.036807    1.147820    ( 0.0000,  0.0000,  0.0000)
   9 O      0.760209    1.389250   -1.148641    ( 0.0000,  0.0000,  0.0000)

Unit cell:
           periodic     x           y           z      points  spacing
  1. axis:    yes    2.342815    1.352071    4.592704    32     0.1216
  2. axis:    yes   -2.342815    1.352071    4.592704    32     0.1216
  3. axis:    yes    0.000000   -2.704886    4.592923    32     0.1216

  Lengths:   5.330085   5.330085   5.330230
  Angles:   52.139511  52.139510  52.149782

Effective grid spacing dv^(1/3) = 0.1386

                     log10-error:           total        iterations:
           time      wfs    density  force  energy       poisson  magmom
iter:   1  14:36:02                       -100.568924             -0.0000
iter:   2  14:36:16  -0.70  -1.01          -99.840414             +0.0000
iter:   3  14:36:30  -0.13  -1.05          -97.281874             +0.0000
iter:   4  14:36:44  -1.16  -1.41          -97.358719             +0.0000
iter:   5  14:36:59  -1.15  -1.36          -97.361492             +0.0000
iter:   6  14:37:13  -0.76  -1.51          -96.978018             +0.0000
iter:   7  14:37:27  -1.59  -1.87          -96.870083             -0.0000
iter:   8  14:37:41  -1.76  -2.02          -96.845424             +0.0000
iter:   9  14:37:55  -1.93  -2.34          -96.842997             -0.0000
iter:  10  14:38:10  -2.74  -2.51          -96.839739             +0.0000
iter:  11  14:38:24  -2.83  -2.71          -96.841996             +0.0000
iter:  12  14:38:38  -3.16  -2.74          -96.841281             +0.0000
iter:  13  14:38:52  -3.08  -2.81          -96.838313             +0.0000
iter:  14  14:39:06  -3.49  -3.10          -96.838630             +0.0000
iter:  15  14:39:20  -3.86  -3.13          -96.838911             +0.0000
iter:  16  14:39:35  -3.89  -3.14          -96.839273             +0.0000
iter:  17  14:39:49  -4.05  -3.06          -96.839318             -0.0000
iter:  18  14:40:03  -4.18  -3.07          -96.839431             +0.0000
iter:  19  14:40:17  -4.40  -3.04          -96.839551             +0.0000
iter:  20  14:40:31  -4.12  -3.03          -96.839438             -0.0000
iter:  21  14:40:45  -4.55  -3.21          -96.839482             +0.0000
iter:  22  14:41:00  -4.20  -3.18          -96.839809             +0.0000
iter:  23  14:41:14  -3.84  -3.16          -96.840284             +0.0000
iter:  24  14:41:28  -3.98  -3.19          -96.839599             -0.0000
iter:  25  14:41:42  -4.59  -3.43          -96.839638             +0.0000
iter:  26  14:41:56  -4.90  -3.43          -96.839615             +0.0000
iter:  27  14:42:10  -4.58  -3.46          -96.839559             +0.0000
iter:  28  14:42:24  -5.10  -3.63          -96.839565             +0.0000
iter:  29  14:42:38  -5.40  -3.72          -96.839572             +0.0000
iter:  30  14:42:52  -5.44  -3.74          -96.839567             +0.0000
iter:  31  14:43:07  -5.35  -3.84          -96.839566             +0.0000
iter:  32  14:43:21  -5.58  -4.32          -96.839568             +0.0000
iter:  33  14:43:35  -5.72  -4.33          -96.839569             +0.0000
iter:  34  14:43:49  -5.81  -4.37          -96.839570             -0.0000
iter:  35  14:44:03  -5.99  -4.46          -96.839572             -0.0000
iter:  36  14:44:18  -6.15  -4.52          -96.839572             +0.0000
iter:  37  14:44:32  -6.33  -4.60          -96.839573             +0.0000
iter:  38  14:44:46  -6.42  -4.64          -96.839574             -0.0000
iter:  39  14:45:00  -6.53  -4.79          -96.839574             +0.0000
iter:  40  14:45:14  -6.65  -5.14          -96.839575             +0.0000
iter:  41  14:45:28  -6.71  -5.22          -96.839575             +0.0000
iter:  42  14:45:42  -6.82  -5.33          -96.839575             -0.0000
iter:  43  14:45:56  -6.94  -5.40          -96.839576             -0.0000
iter:  44  14:46:10  -6.98  -5.41          -96.839576             -0.0000
iter:  45  14:46:24  -7.19  -5.24          -96.839576             +0.0000
iter:  46  14:46:38  -7.15  -5.50          -96.839576             -0.0000
iter:  47  14:46:52  -7.36  -5.47          -96.839576             -0.0000
iter:  48  14:47:09  -7.42  -5.49          -96.839576             -0.0000
iter:  49  14:47:25  -7.46  -5.43    -4.67 -96.839576             -0.0000

Converged after 49 iterations.

Dipole moment: (-0.040575, -0.025095, -0.080538) |e|*Ang

Total magnetic moment: (0.000000, 0.000000, -0.000000)
Local magnetic moments:
   0 O  ( 0.000000,  0.000000, -0.000181)
   1 O  ( 0.000000,  0.000000,  0.000028)
   2 O  ( 0.000000,  0.000000, -0.000000)
   3 O  ( 0.000000,  0.000000,  0.000000)
   4 Cr ( 0.000000,  0.000000,  2.209889)
   5 Cr ( 0.000000,  0.000000, -2.209889)
   6 Cr ( 0.000000,  0.000000, -2.213805)
   7 Cr ( 0.000000,  0.000000,  2.213806)
   8 O  ( 0.000000,  0.000000,  0.000181)
   9 O  ( 0.000000,  0.000000, -0.000028)

Energy contributions relative to reference atoms: (reference = -126274.181857)

Kinetic:        +34.513528
Potential:      -54.081664
External:        +0.000000
XC:             -79.003309
Entropy (-ST):   -0.000000
Local:           +1.731869
Free energy:    -96.839576
Extrapolated:   -96.839576

Spin contamination: 4.768263 electrons
Showing only first 2 kpts
                      Up                     Down
 Kpt  Band  Eigenvalues  Occupancy  Eigenvalues  Occupancy
  0    28      8.50812    1.00000      8.50813    1.00000
  0    29      8.76995    1.00000      8.76995    1.00000
  0    30     10.01790    0.00000     10.01790    0.00000
  0    31     10.02341    0.00000     10.02341    0.00000

  1    28      8.53657    1.00000      8.53657    1.00000
  1    29      8.81537    1.00000      8.81537    1.00000
  1    30      9.95643    0.00000      9.95643    0.00000
  1    31     10.01100    0.00000     10.01100    0.00000

Fermi level: 9.31532

Gap: 0.826 eV
Transition (v -> c):
  (s=0, k=785, n=29, [-0.00, -0.00, -0.00]) -> (s=1, k=471, n=30, [-0.17, -0.17, -0.17])
Writing to born-0.01-2x-.gpw (mode='all')