User:   madkru@a019.nifl.fysik.dtu.dk
Date:   Mon Jun 27 13:13:29 2022
Arch:   x86_64
Pid:    207123
Python: 3.8.6
gpaw:   /home/niflheim/madkru/new_venv/gpaw/gpaw (1f0dfc9eae)
_gpaw:  /home/niflheim/madkru/new_venv/gpaw/build/lib.linux-x86_64-skylake-3.8/
        _gpaw.cpython-38-x86_64-linux-gnu.so (c1e45bfab3)
ase:    /home/niflheim/madkru/new_venv/ase/ase (version 3.23.0b1-ca38c75a67)
numpy:  /home/modules/software/SciPy-bundle/2020.11-foss-2020b/lib/python3.8/site-packages/numpy (version 1.19.4)
scipy:  /home/modules/software/SciPy-bundle/2020.11-foss-2020b/lib/python3.8/site-packages/scipy (version 1.5.4)
units:  Angstrom and eV
cores: 40
OpenMP: False
OMP_NUM_THREADS: 1

Input parameters:
  convergence: {forces: 0.0001}
  kpts: {gamma: True,
         size: (12, 12, 12)}
  mode: {ecut: 600.0,
         gammacentered: False,
         name: pw}
  occupations: {fixmagmom: False,
                name: fermi-dirac,
                width: 0.001}
  symmetry: off

System changes: positions, numbers, cell, pbc, initial_charges, initial_magmoms

Initialize ...

O-setup:
  name: Oxygen
  id: 9b9d51c344dea68c822856295a461509
  Z: 8.0
  valence: 6
  core: 2
  charge: 0.0
  file: /home/modules/software/GPAW-setups/0.9.20000/O.LDA.gz
  compensation charges: gauss, rc=0.21, lmax=2
  cutoffs: 1.17(filt), 0.83(core),
  valence states:
                energy  radius
    2s(2.00)   -23.752   0.688
    2p(4.00)    -9.195   0.598
    *s           3.459   0.688
    *p          18.016   0.598
    *d           0.000   0.619

  Using partial waves for O as LCAO basis

Cr-setup:
  name: Chromium
  id: 444e8044bc0f91048286c984738d87f5
  Z: 24.0
  valence: 6
  core: 18
  charge: 0.0
  file: /home/modules/software/GPAW-setups/0.9.20000/Cr.LDA.gz
  compensation charges: gauss, rc=0.35, lmax=2
  cutoffs: 2.14(filt), 3.04(core),
  valence states:
                energy  radius
    4s(1.00)    -4.191   1.164
    4p(0.00)    -1.079   1.217
    3d(5.00)    -3.128   1.111
    *s          23.021   1.164
    *p          26.132   1.217
    *d          24.083   1.111

[...]

Reference energy: -126274.181857

Spin-polarized calculation.
Magnetic moment: 0.000000

Convergence criteria:
  Maximum total energy change: 0.0005 eV / electron
  Maximum integral of absolute density change: 0.0001 electrons
  Maximum integral of absolute eigenstate change: 4e-08 eV^2
  Maximum change in atomic force: 0.0001 eV / Ang
  Maximum number of iterations: 333

Symmetries present (total): 1

  ( 1  0  0)
  ( 0  1  0)
  ( 0  0  1)

1728 k-points: 12 x 12 x 12 Monkhorst-Pack grid + [1/24,1/24,1/24]
1728 k-points in the irreducible part of the Brillouin zone
       k-points in crystal coordinates                weights
   0:    -0.41666667   -0.41666667   -0.41666667          1/1728
   1:    -0.41666667   -0.41666667   -0.33333333          1/1728
   2:    -0.41666667   -0.41666667   -0.25000000          1/1728
   3:    -0.41666667   -0.41666667   -0.16666667          1/1728
   4:    -0.41666667   -0.41666667   -0.08333333          1/1728
   5:    -0.41666667   -0.41666667   -0.00000000          1/1728
   6:    -0.41666667   -0.41666667    0.08333333          1/1728
   7:    -0.41666667   -0.41666667    0.16666667          1/1728
   8:    -0.41666667   -0.41666667    0.25000000          1/1728
   9:    -0.41666667   -0.41666667    0.33333333          1/1728
          ...
1727:     0.50000000    0.50000000    0.50000000          1/1728

Wave functions: Plane wave expansion
  Cutoff energy: 600.000 eV
  Number of coefficients (min, max): 2865, 2922
  Pulay-stress correction: 0.000000 eV/Ang^3 (de/decut=0.000000)
  Using FFTW library
  ScaLapack parameters: grid=1x1, blocksize=None
  Wavefunction extrapolation:
    Improved wavefunction reuse through dual PAW basis

Occupation numbers: Fermi-Dirac: width=0.0010 eV

Eigensolver
   Davidson(niter=2)

Densities:
  Coarse grid: 32*32*32 grid
  Fine grid: 64*64*64 grid
  Total Charge: 0.000000

Density mixing:
  Method: difference
  Backend: pulay
  Linear mixing parameter: 0.05
  Mixing with 5 old densities
  Damping of long wave oscillations: 50

Hamiltonian:
  XC and Coulomb potentials evaluated on a 64*64*64 grid
  Using the LDA Exchange-Correlation functional
  External potential:
    <gpaw.external.NoExternalPotential object at 0x2b8b47b51910>

Total number of cores used: 40
Parallelization over k-points: 40

Number of atoms: 10
Number of atomic orbitals: 60
Number of bands in calculation: 40
Number of valence electrons: 60
Bands to converge: occupied

... initialized

Initializing position-dependent things.

Density initialized from atomic densities
Creating initial wave functions:
  40 bands from LCAO basis set

            Cr

            Cr
           O
         O      O

        O      O
             O
            Cr

[...]

Positions:
   0 O     -0.757789   -1.375852    8.048823    ( 0.0000,  0.0000,  0.0000)
   1 O     -1.570418   -0.031661    5.749178    ( 0.0000,  0.0000,  0.0000)
   2 O     -0.812628    1.344191    8.048823    ( 0.0000,  0.0000,  0.0000)
   3 O      0.812628   -1.344191    5.749178    ( 0.0000,  0.0000,  0.0000)
   4 Cr     0.000000   -0.000000    2.204841    ( 0.0000,  0.0000,  2.0000)
   5 Cr     0.000000   -0.000000    4.694125    ( 0.0000,  0.0000, -2.0000)
   6 Cr     0.000000   -0.000000   11.593160    ( 0.0000,  0.0000, -2.0000)
   7 Cr     0.000000   -0.000000    9.103876    ( 0.0000,  0.0000,  2.0000)
   8 O      1.570418    0.031661    8.048823    ( 0.0000,  0.0000,  0.0000)
   9 O      0.757789    1.375852    5.749178    ( 0.0000,  0.0000,  0.0000)

Unit cell:
           periodic     x           y           z      points  spacing
  1. axis:    yes    2.328222    1.344200    4.599334    32     0.1210
  2. axis:    yes   -2.328222    1.344200    4.599334    32     0.1210
  3. axis:    yes   -0.000000   -2.688399    4.599334    32     0.1210

  Lengths:   5.327416   5.327416   5.327416
  Angles:   51.828627  51.828627  51.828627

Effective grid spacing dv^(1/3) = 0.1381

                     log10-error:           total        iterations:
           time      wfs    density  force  energy       poisson  magmom
iter:   1  13:20:15                       -100.618111             +0.0000
iter:   2  13:20:27  -0.70  -1.01          -99.837635             -0.0000
iter:   3  13:20:38  -0.13  -1.06          -97.232751             +0.0000
iter:   4  13:20:49  -1.16  -1.41          -97.308925             +0.0000
iter:   5  13:21:00  -1.18  -1.37          -97.266915             +0.0000
iter:   6  13:21:11  -0.78  -1.52          -96.925292             +0.0000
iter:   7  13:21:23  -1.56  -1.88          -96.807513             +0.0000
iter:   8  13:21:34  -1.93  -2.08          -96.790497             -0.0000
iter:   9  13:21:45  -2.07  -2.57          -96.795673             +0.0000
iter:  10  13:21:56  -2.59  -2.50          -96.800234             +0.0000
iter:  11  13:22:07  -2.96  -2.53          -96.791186             +0.0000
iter:  12  13:22:18  -3.15  -3.01          -96.791211             +0.0000
iter:  13  13:22:29  -3.59  -3.38          -96.791658             -0.0000
iter:  14  13:22:40  -3.76  -3.37          -96.792297             -0.0000
iter:  15  13:22:51  -3.91  -3.20          -96.792208             +0.0000
iter:  16  13:23:02  -4.00  -3.33          -96.792407             +0.0000
iter:  17  13:23:14  -4.18  -3.28          -96.792728             +0.0000
iter:  18  13:23:25  -4.32  -3.18          -96.792554             +0.0000
iter:  19  13:23:36  -4.30  -3.28          -96.792678             +0.0000
iter:  20  13:23:47  -4.39  -3.22          -96.792521             +0.0000
iter:  21  13:23:58  -4.62  -3.36          -96.792683             +0.0000
iter:  22  13:24:09  -4.89  -3.31          -96.792703             +0.0000
iter:  23  13:24:20  -4.81  -3.31          -96.792764             +0.0000
iter:  24  13:24:31  -4.33  -3.31          -96.792667             +0.0000
iter:  25  13:24:42  -4.72  -3.57          -96.792655             +0.0000
iter:  26  13:24:53  -4.27  -3.54          -96.792893             +0.0000
iter:  27  13:25:04  -4.36  -3.37          -96.792646             +0.0000
iter:  28  13:25:15  -5.13  -3.80          -96.792644             +0.0000
iter:  29  13:25:26  -5.29  -3.84          -96.792648             +0.0000
iter:  30  13:25:38  -5.46  -3.85          -96.792653             +0.0000
iter:  31  13:25:49  -4.89  -3.83          -96.792701             +0.0000
iter:  32  13:26:00  -5.09  -3.74          -96.792652             +0.0000
iter:  33  13:26:11  -5.83  -4.03          -96.792653             +0.0000
iter:  34  13:26:22  -5.41  -4.12          -96.792669             +0.0000
iter:  35  13:26:33  -5.78  -3.98          -96.792654             +0.0000
iter:  36  13:26:44  -6.10  -4.43          -96.792654             +0.0000
iter:  37  13:26:55  -6.24  -4.61          -96.792654             -0.0000
iter:  38  13:27:06  -6.25  -4.71          -96.792655             +0.0000
iter:  39  13:27:17  -6.40  -4.70          -96.792655             +0.0000
iter:  40  13:27:28  -6.55  -4.84          -96.792656             +0.0000
iter:  41  13:27:39  -6.73  -4.86          -96.792656             -0.0000
iter:  42  13:27:50  -6.88  -4.90          -96.792656             -0.0000
iter:  43  13:28:01  -6.94  -4.96          -96.792656             +0.0000
iter:  44  13:28:13  -7.04  -5.13          -96.792657             -0.0000
iter:  45  13:28:24  -7.22  -5.33          -96.792657             +0.0000
iter:  46  13:28:35  -7.32  -5.78          -96.792657             -0.0000
iter:  47  13:28:48  -7.43  -5.75          -96.792657             -0.0000
iter:  48  13:29:01  -7.49  -5.75    -4.82 -96.792657             -0.0000

Converged after 48 iterations.

Dipole moment: (0.000000, -0.000000, -0.000000) |e|*Ang

Total magnetic moment: (0.000000, 0.000000, -0.000000)
Local magnetic moments:
   0 O  ( 0.000000,  0.000000, -0.000124)
   1 O  ( 0.000000,  0.000000, -0.000123)
   2 O  ( 0.000000,  0.000000, -0.000001)
   3 O  ( 0.000000,  0.000000,  0.000001)
   4 Cr ( 0.000000,  0.000000,  2.164647)
   5 Cr ( 0.000000,  0.000000, -2.164656)
   6 Cr ( 0.000000,  0.000000, -2.164647)
   7 Cr ( 0.000000,  0.000000,  2.164656)
   8 O  ( 0.000000,  0.000000,  0.000123)
   9 O  ( 0.000000,  0.000000,  0.000124)

Energy contributions relative to reference atoms: (reference = -126274.181857)

Kinetic:        +38.927249
Potential:      -57.645099
External:        +0.000000
XC:             -79.832783
Entropy (-ST):   -0.000000
Local:           +1.757976
Free energy:    -96.792657
Extrapolated:   -96.792657

Spin contamination: 4.661328 electrons
Showing only first 2 kpts
                      Up                     Down
 Kpt  Band  Eigenvalues  Occupancy  Eigenvalues  Occupancy
  0    28      8.66479    1.00000      8.66479    1.00000
  0    29      8.95126    1.00000      8.95126    1.00000
  0    30     10.16417    0.00000     10.16417    0.00000
  0    31     10.16441    0.00000     10.16441    0.00000

  1    28      8.69571    1.00000      8.69571    1.00000
  1    29      8.99567    1.00000      8.99567    1.00000
  1    30     10.09556    0.00000     10.09556    0.00000
  1    31     10.15542    0.00000     10.15542    0.00000

Fermi level: 9.49140

Gap: 0.748 eV
Transition (v -> c):
  (s=0, k=785, n=29, [-0.00, -0.00, -0.00]) -> (s=1, k=471, n=30, [-0.17, -0.17, -0.17])
Stress tensor:
    -0.016493    -0.000000    -0.000000
    -0.000000    -0.016473    -0.000019
    -0.000000    -0.000019    -0.015796

Forces in eV/Ang:
  0 O    -0.01174    0.01513    0.00228
  1 O     0.01176    0.01512    0.00187
  2 O     0.01261   -0.00001    0.00020
  3 O    -0.01261    0.00001   -0.00020
  4 Cr   -0.00053   -0.00133   -0.00502
  5 Cr   -0.00053    0.00133    0.00564
  6 Cr    0.00053    0.00133    0.00502
  7 Cr    0.00053   -0.00133   -0.00564
  8 O    -0.01176   -0.01512   -0.00187
  9 O     0.01174   -0.01513   -0.00228

System changes: cell, positions

[...]

Hamiltonian:
  XC and Coulomb potentials evaluated on a 64*64*64 grid
  Using the LDA Exchange-Correlation functional
  External potential:
    <gpaw.external.NoExternalPotential object at 0x2b8b491415e0>

[...]

Hamiltonian:
  XC and Coulomb potentials evaluated on a 64*64*64 grid
  Using the LDA Exchange-Correlation functional
  External potential:
    <gpaw.external.NoExternalPotential object at 0x2b8b47b510a0>

[...]

Hamiltonian:
  XC and Coulomb potentials evaluated on a 64*64*64 grid
  Using the LDA Exchange-Correlation functional
  External potential:
    <gpaw.external.NoExternalPotential object at 0x2b8b52f89040>

[...]

Hamiltonian:
  XC and Coulomb potentials evaluated on a 64*64*64 grid
  Using the LDA Exchange-Correlation functional
  External potential:
    <gpaw.external.NoExternalPotential object at 0x2b8b545854c0>

[...]

Hamiltonian:
  XC and Coulomb potentials evaluated on a 64*64*64 grid
  Using the LDA Exchange-Correlation functional
  External potential:
    <gpaw.external.NoExternalPotential object at 0x2b8b46708eb0>

[...]

Hamiltonian:
  XC and Coulomb potentials evaluated on a 64*64*64 grid
  Using the LDA Exchange-Correlation functional
  External potential:
    <gpaw.external.NoExternalPotential object at 0x2b8b59edac10>

[...]

Hamiltonian:
  XC and Coulomb potentials evaluated on a 64*64*64 grid
  Using the LDA Exchange-Correlation functional
  External potential:
    <gpaw.external.NoExternalPotential object at 0x2b8b5b9b2fd0>

[...]

Hamiltonian:
  XC and Coulomb potentials evaluated on a 64*64*64 grid
  Using the LDA Exchange-Correlation functional
  External potential:
    <gpaw.external.NoExternalPotential object at 0x2b8b4658e3a0>

[...]

Hamiltonian:
  XC and Coulomb potentials evaluated on a 64*64*64 grid
  Using the LDA Exchange-Correlation functional
  External potential:
    <gpaw.external.NoExternalPotential object at 0x2b8b6175c1f0>

[...]

Hamiltonian:
  XC and Coulomb potentials evaluated on a 64*64*64 grid
  Using the LDA Exchange-Correlation functional
  External potential:
    <gpaw.external.NoExternalPotential object at 0x2b8b49761b80>

[...]

Hamiltonian:
  XC and Coulomb potentials evaluated on a 64*64*64 grid
  Using the LDA Exchange-Correlation functional
  External potential:
    <gpaw.external.NoExternalPotential object at 0x2b8b5b9a9040>

[...]

Hamiltonian:
  XC and Coulomb potentials evaluated on a 64*64*64 grid
  Using the LDA Exchange-Correlation functional
  External potential:
    <gpaw.external.NoExternalPotential object at 0x2b8b67f011c0>

[...]

Hamiltonian:
  XC and Coulomb potentials evaluated on a 64*64*64 grid
  Using the LDA Exchange-Correlation functional
  External potential:
    <gpaw.external.NoExternalPotential object at 0x2b8b68f6d370>

[...]

Hamiltonian:
  XC and Coulomb potentials evaluated on a 64*64*64 grid
  Using the LDA Exchange-Correlation functional
  External potential:
    <gpaw.external.NoExternalPotential object at 0x2b8b47b415b0>

[...]

Hamiltonian:
  XC and Coulomb potentials evaluated on a 64*64*64 grid
  Using the LDA Exchange-Correlation functional
  External potential:
    <gpaw.external.NoExternalPotential object at 0x2b8b63335940>

[...]

Hamiltonian:
  XC and Coulomb potentials evaluated on a 64*64*64 grid
  Using the LDA Exchange-Correlation functional
  External potential:
    <gpaw.external.NoExternalPotential object at 0x2b8b47b8bf70>

[...]

Hamiltonian:
  XC and Coulomb potentials evaluated on a 64*64*64 grid
  Using the LDA Exchange-Correlation functional
  External potential:
    <gpaw.external.NoExternalPotential object at 0x2b8b47bb37c0>

[...]

Hamiltonian:
  XC and Coulomb potentials evaluated on a 64*64*64 grid
  Using the LDA Exchange-Correlation functional
  External potential:
    <gpaw.external.NoExternalPotential object at 0x2b8b5f582c40>

[...]

System changes: cell, positions

Initialize ...

O-setup:
  name: Oxygen
  id: 9b9d51c344dea68c822856295a461509
  Z: 8.0
  valence: 6
  core: 2
  charge: 0.0
  file: /home/modules/software/GPAW-setups/0.9.20000/O.LDA.gz
  compensation charges: gauss, rc=0.21, lmax=2
  cutoffs: 1.17(filt), 0.83(core),
  valence states:
                energy  radius
    2s(2.00)   -23.752   0.688
    2p(4.00)    -9.195   0.598
    *s           3.459   0.688
    *p          18.016   0.598
    *d           0.000   0.619

[...]

Cr-setup:
  name: Chromium
  id: 444e8044bc0f91048286c984738d87f5
  Z: 24.0
  valence: 6
  core: 18
  charge: 0.0
  file: /home/modules/software/GPAW-setups/0.9.20000/Cr.LDA.gz
  compensation charges: gauss, rc=0.35, lmax=2
  cutoffs: 2.14(filt), 3.04(core),
  valence states:
                energy  radius
    4s(1.00)    -4.191   1.164
    4p(0.00)    -1.079   1.217
    3d(5.00)    -3.128   1.111
    *s          23.021   1.164
    *p          26.132   1.217
    *d          24.083   1.111

  Using partial waves for Cr as LCAO basis

Reference energy: -126274.181857

Spin-polarized calculation.
Magnetic moment: 0.000000

Convergence criteria:
  Maximum total energy change: 0.0005 eV / electron
  Maximum integral of absolute density change: 0.0001 electrons
  Maximum integral of absolute eigenstate change: 4e-08 eV^2
  Maximum change in atomic force: 0.0001 eV / Ang
  Maximum number of iterations: 333

Symmetries present (total): 1

  ( 1  0  0)
  ( 0  1  0)
  ( 0  0  1)

1728 k-points: 12 x 12 x 12 Monkhorst-Pack grid + [1/24,1/24,1/24]
1728 k-points in the irreducible part of the Brillouin zone
       k-points in crystal coordinates                weights
   0:    -0.41666667   -0.41666667   -0.41666667          1/1728
   1:    -0.41666667   -0.41666667   -0.33333333          1/1728
   2:    -0.41666667   -0.41666667   -0.25000000          1/1728
   3:    -0.41666667   -0.41666667   -0.16666667          1/1728
   4:    -0.41666667   -0.41666667   -0.08333333          1/1728
   5:    -0.41666667   -0.41666667   -0.00000000          1/1728
   6:    -0.41666667   -0.41666667    0.08333333          1/1728
   7:    -0.41666667   -0.41666667    0.16666667          1/1728
   8:    -0.41666667   -0.41666667    0.25000000          1/1728
   9:    -0.41666667   -0.41666667    0.33333333          1/1728
          ...
1727:     0.50000000    0.50000000    0.50000000          1/1728

Wave functions: Plane wave expansion
  Cutoff energy: 600.000 eV
  Number of coefficients (min, max): 2896, 2946
  Pulay-stress correction: 0.000000 eV/Ang^3 (de/decut=0.000000)
  Using FFTW library
  ScaLapack parameters: grid=1x1, blocksize=None
  Wavefunction extrapolation:
    Improved wavefunction reuse through dual PAW basis

Occupation numbers: Fermi-Dirac: width=0.0010 eV

Eigensolver
   Davidson(niter=2)

Densities:
  Coarse grid: 32*32*32 grid
  Fine grid: 64*64*64 grid
  Total Charge: 0.000000

Density mixing:
  Method: difference
  Backend: pulay
  Linear mixing parameter: 0.05
  Mixing with 5 old densities
  Damping of long wave oscillations: 50

Hamiltonian:
  XC and Coulomb potentials evaluated on a 64*64*64 grid
  Using the LDA Exchange-Correlation functional
  External potential:
    <gpaw.external.NoExternalPotential object at 0x2b8b47beb550>

Total number of cores used: 40
Parallelization over k-points: 40

Number of atoms: 10
Number of atomic orbitals: 60
Number of bands in calculation: 40
Number of valence electrons: 60
Bands to converge: occupied

... initialized

Initializing position-dependent things.

Density initialized from atomic densities
Creating initial wave functions:
  40 bands from LCAO basis set

[...]

            Cr
           O
         O      O

        O      O
             O
            Cr

            Cr

Positions:
   0 O     -0.760209   -1.389622    8.037806    ( 0.0000,  0.0000,  0.0000)
   1 O     -1.582607   -0.037179    5.741345    ( 0.0000,  0.0000,  0.0000)
   2 O     -0.823830    1.351886    8.037286    ( 0.0000,  0.0000,  0.0000)
   3 O      0.823830   -1.352629    5.741044    ( 0.0000,  0.0000,  0.0000)
   4 Cr    -0.000004   -0.000111    2.195939    ( 0.0000,  0.0000,  2.0000)
   5 Cr    -0.000004   -0.000260    4.693225    ( 0.0000,  0.0000, -2.0000)
   6 Cr     0.000004   -0.000632   11.582391    ( 0.0000,  0.0000, -2.0000)
   7 Cr     0.000004   -0.000483    9.085105    ( 0.0000,  0.0000,  2.0000)
   8 O      1.582607    0.036435    8.036986    ( 0.0000,  0.0000,  0.0000)
   9 O      0.760209    1.388879    5.740525    ( 0.0000,  0.0000,  0.0000)

Unit cell:
           periodic     x           y           z      points  spacing
  1. axis:    yes    2.342815    1.352071    4.592704    32     0.1216
  2. axis:    yes   -2.342815    1.352071    4.592704    32     0.1216
  3. axis:    yes    0.000000   -2.704886    4.592923    32     0.1216

  Lengths:   5.330085   5.330085   5.330230
  Angles:   52.139511  52.139510  52.149782

Effective grid spacing dv^(1/3) = 0.1386

                     log10-error:           total        iterations:
           time      wfs    density  force  energy       poisson  magmom
iter:   1  19:30:50                       -100.567716             -0.0000
iter:   2  19:31:01  -0.70  -1.01          -99.837395             -0.0000
iter:   3  19:31:13  -0.13  -1.05          -97.281833             -0.0000
iter:   4  19:31:24  -1.16  -1.41          -97.359109             -0.0000
iter:   5  19:31:35  -1.15  -1.36          -97.358706             -0.0000
iter:   6  19:31:46  -0.76  -1.51          -96.978245             -0.0000
iter:   7  19:31:57  -1.59  -1.87          -96.869642             -0.0000
iter:   8  19:32:08  -1.77  -2.02          -96.845269             -0.0000
iter:   9  19:32:19  -1.94  -2.36          -96.843954             -0.0000
iter:  10  19:32:30  -2.66  -2.51          -96.843408             -0.0000
iter:  11  19:32:42  -2.87  -2.61          -96.841138             -0.0000
iter:  12  19:32:53  -3.17  -2.83          -96.839256             -0.0000
iter:  13  19:33:04  -3.37  -3.15          -96.839325             -0.0000
iter:  14  19:33:15  -3.68  -3.44          -96.839726             +0.0000
iter:  15  19:33:26  -3.86  -3.35          -96.840053             -0.0000
iter:  16  19:33:37  -3.96  -3.23          -96.840172             -0.0000
iter:  17  19:33:48  -4.09  -3.27          -96.840560             -0.0000
iter:  18  19:33:59  -4.16  -3.13          -96.840318             -0.0000
iter:  19  19:34:10  -4.32  -3.35          -96.840495             -0.0000
iter:  20  19:34:21  -4.33  -3.19          -96.840334             -0.0000
iter:  21  19:34:32  -4.38  -3.51          -96.840367             -0.0000
iter:  22  19:34:43  -4.59  -3.61          -96.840436             +0.0000
iter:  23  19:34:54  -4.81  -3.48          -96.840412             +0.0000
iter:  24  19:35:05  -5.08  -3.62          -96.840430             -0.0000
iter:  25  19:35:16  -5.17  -3.62          -96.840437             -0.0000
iter:  26  19:35:27  -5.24  -3.63          -96.840440             -0.0000
iter:  27  19:35:38  -5.41  -3.61          -96.840445             +0.0000
iter:  28  19:35:49  -5.39  -3.64          -96.840454             -0.0000
iter:  29  19:36:01  -5.62  -3.69          -96.840446             -0.0000
iter:  30  19:36:12  -5.55  -3.80          -96.840451             +0.0000
iter:  31  19:36:23  -5.83  -4.13          -96.840454             -0.0000
iter:  32  19:36:34  -5.46  -4.15          -96.840455             +0.0000
iter:  33  19:36:45  -5.83  -4.15          -96.840454             +0.0000
iter:  34  19:36:56  -6.03  -4.31          -96.840456             +0.0000
iter:  35  19:37:07  -5.96  -4.36          -96.840458             +0.0000
iter:  36  19:37:18  -6.08  -4.37          -96.840457             -0.0000
iter:  37  19:37:29  -6.17  -4.62          -96.840457             -0.0000
iter:  38  19:37:40  -6.35  -5.15          -96.840458             -0.0000
iter:  39  19:37:51  -6.48  -5.21          -96.840458             +0.0000
iter:  40  19:38:02  -6.56  -5.24          -96.840458             -0.0000
iter:  41  19:38:13  -6.67  -5.24          -96.840459             +0.0000
iter:  42  19:38:24  -6.79  -5.23          -96.840459             -0.0000
iter:  43  19:38:35  -6.88  -5.19          -96.840459             +0.0000
iter:  44  19:38:46  -7.00  -5.23          -96.840459             -0.0000
iter:  45  19:38:57  -7.11  -5.23          -96.840460             -0.0000
iter:  46  19:39:08  -7.16  -5.22          -96.840460             -0.0000
iter:  47  19:39:19  -7.25  -5.20          -96.840460             -0.0000
iter:  48  19:39:32  -7.41  -5.21          -96.840460             -0.0000
iter:  49  19:39:43  -7.31  -5.24          -96.840460             -0.0000
iter:  50  19:39:56  -7.44  -5.24    -3.26 -96.840460             -0.0000
iter:  51  19:40:09  -7.49  -5.29    -3.60 -96.840460             -0.0000
iter:  52  19:40:22  -7.71  -5.28    -3.69 -96.840460             -0.0000
iter:  53  19:40:36  -7.81  -5.31    -3.62 -96.840460             -0.0000
iter:  54  19:40:49  -7.94  -5.40    -3.77 -96.840460             -0.0000
iter:  55  19:41:02  -7.96  -5.51    -3.63 -96.840460             -0.0000
iter:  56  19:41:15  -7.99  -5.58    -4.48 -96.840460             -0.0000

Converged after 56 iterations.

Dipole moment: (-0.000000, 0.000000, -0.000000) |e|*Ang

Total magnetic moment: (0.000000, 0.000000, -0.000000)
Local magnetic moments:
   0 O  ( 0.000000,  0.000000, -0.000161)
   1 O  ( 0.000000,  0.000000, -0.000161)
   2 O  ( 0.000000,  0.000000, -0.000000)
   3 O  ( 0.000000,  0.000000,  0.000000)
   4 Cr ( 0.000000,  0.000000,  2.209744)
   5 Cr ( 0.000000,  0.000000, -2.209744)
   6 Cr ( 0.000000,  0.000000, -2.209744)
   7 Cr ( 0.000000,  0.000000,  2.209744)
   8 O  ( 0.000000,  0.000000,  0.000161)
   9 O  ( 0.000000,  0.000000,  0.000161)

Energy contributions relative to reference atoms: (reference = -126274.181857)

Kinetic:        +34.237968
Potential:      -53.858731
External:        +0.000000
XC:             -78.951656
Entropy (-ST):   -0.000000
Local:           +1.731959
Free energy:    -96.840460
Extrapolated:   -96.840460

Spin contamination: 4.763631 electrons
Showing only first 2 kpts
                      Up                     Down
 Kpt  Band  Eigenvalues  Occupancy  Eigenvalues  Occupancy
  0    28      8.50400    1.00000      8.50400    1.00000
  0    29      8.76887    1.00000      8.76887    1.00000
  0    30     10.01876    0.00000     10.01876    0.00000
  0    31     10.01954    0.00000     10.01954    0.00000

  1    28      8.53450    1.00000      8.53450    1.00000
  1    29      8.81493    1.00000      8.81493    1.00000
  1    30      9.95442    0.00000      9.95442    0.00000
  1    31     10.00964    0.00000     10.00964    0.00000

Fermi level: 9.31423

Gap: 0.827 eV
Transition (v -> c):
  (s=0, k=785, n=29, [-0.00, -0.00, -0.00]) -> (s=1, k=471, n=30, [-0.17, -0.17, -0.17])
Stress tensor:
     0.000018    -0.000000    -0.000000
    -0.000000    -0.000032    -0.000098
    -0.000000    -0.000098    -0.000036

Forces in eV/Ang:
  0 O    -0.00018    0.00044    0.00012
  1 O     0.00020    0.00044    0.00011
  2 O     0.00024   -0.00001    0.00001
  3 O    -0.00024    0.00001   -0.00001
  4 Cr   -0.00011    0.00006   -0.00082
  5 Cr   -0.00011   -0.00006    0.00083
  6 Cr    0.00011   -0.00006    0.00082
  7 Cr    0.00011    0.00006   -0.00083
  8 O    -0.00020   -0.00044   -0.00011
  9 O     0.00018   -0.00044   -0.00012

Writing to Cr2O3_relaxed.gpw (mode='')