User:   madkru@c018.nifl.fysik.dtu.dk
Date:   Wed Jul  6 16:49:14 2022
Arch:   x86_64
Pid:    244658
Python: 3.8.6
gpaw:   /home/niflheim/madkru/new_venv/gpaw/gpaw (1f0dfc9eae)
_gpaw:  /home/niflheim/madkru/new_venv/gpaw/build/lib.linux-x86_64-skylake-3.8/
        _gpaw.cpython-38-x86_64-linux-gnu.so (c1e45bfab3)
ase:    /home/niflheim/madkru/new_venv/ase/ase (version 3.23.0b1-ca38c75a67)
numpy:  /home/modules/software/SciPy-bundle/2020.11-foss-2020b/lib/python3.8/site-packages/numpy (version 1.19.4)
scipy:  /home/modules/software/SciPy-bundle/2020.11-foss-2020b/lib/python3.8/site-packages/scipy (version 1.5.4)
units:  Angstrom and eV
cores: 40
OpenMP: False
OMP_NUM_THREADS: 1

Input parameters:
  convergence: {density: 1e-09}
  experimental: {magmoms: [[0. 0. 0.]
 [0. 0. 0.]
 [0. 0. 0.]
 ...
 [0. 0. 5.]
 [0. 0. 0.]
 [0. 0. 0.]],
                 soc: True}
  kpts: [4 4 6]
  maxiter: 5000
  mixer: {backend: pulay,
          beta: 0.02,
          method: difference,
          nmaxold: 5,
          weight: 100}
  mode: {ecut: 600.0,
         gammacentered: False,
         name: pw}
  occupations: {name: fermi-dirac,
                width: 0.001}
  symmetry: off

System changes: positions, numbers, cell, pbc, initial_charges, initial_magmoms

Initialize ...

O-setup:
  name: Oxygen
  id: 9b9d51c344dea68c822856295a461509
  Z: 8.0
  valence: 6
  core: 2
  charge: 0.0
  file: /home/modules/software/GPAW-setups/0.9.20000/O.LDA.gz
  compensation charges: gauss, rc=0.21, lmax=2
  cutoffs: 1.17(filt), 0.83(core),
  valence states:
                energy  radius
    2s(2.00)   -23.752   0.688
    2p(4.00)    -9.195   0.598
    *s           3.459   0.688
    *p          18.016   0.598
    *d           0.000   0.619

  Using partial waves for O as LCAO basis

Cr-setup:
  name: Chromium
  id: 444e8044bc0f91048286c984738d87f5
  Z: 24.0
  valence: 6
  core: 18
  charge: 0.0
  file: /home/modules/software/GPAW-setups/0.9.20000/Cr.LDA.gz
  compensation charges: gauss, rc=0.35, lmax=2
  cutoffs: 2.14(filt), 3.04(core),
  valence states:
                energy  radius
    4s(1.00)    -4.191   1.164
    4p(0.00)    -1.079   1.217
    3d(5.00)    -3.128   1.111
    *s          23.021   1.164
    *p          26.132   1.217
    *d          24.083   1.111

  Using partial waves for Cr as LCAO basis

Reference energy: -126274.181857

Non-collinear calculation.
Magnetic moment: (0.000000, 0.000000, 0.000000)

Convergence criteria:
  Maximum total energy change: 0.0005 eV / electron
  Maximum integral of absolute density change: 1e-09 electrons
  Maximum integral of absolute eigenstate change: 4e-08 eV^2
  Maximum number of iterations: 5000

Symmetries present (total): 1

  ( 1  0  0)
  ( 0  1  0)
  ( 0  0  1)

96 k-points: 4 x 4 x 6 Monkhorst-Pack grid
96 k-points in the irreducible part of the Brillouin zone
       k-points in crystal coordinates                weights
   0:    -0.37500000   -0.37500000   -0.41666667          1/96
   1:    -0.37500000   -0.37500000   -0.25000000          1/96
   2:    -0.37500000   -0.37500000   -0.08333333          1/96
   3:    -0.37500000   -0.37500000    0.08333333          1/96
   4:    -0.37500000   -0.37500000    0.25000000          1/96
   5:    -0.37500000   -0.37500000    0.41666667          1/96
   6:    -0.37500000   -0.12500000   -0.41666667          1/96
   7:    -0.37500000   -0.12500000   -0.25000000          1/96
   8:    -0.37500000   -0.12500000   -0.08333333          1/96
   9:    -0.37500000   -0.12500000    0.08333333          1/96
          ...
  95:     0.37500000    0.37500000    0.41666667          1/96

Wave functions: Plane wave expansion
  Cutoff energy: 600.000 eV
  Number of coefficients (min, max): 2899, 2926
  Pulay-stress correction: 0.000000 eV/Ang^3 (de/decut=0.000000)
  Using FFTW library
  ScaLapack parameters: grid=1x1, blocksize=None
  Wavefunction extrapolation:
    Improved wavefunction reuse through dual PAW basis

Occupation numbers: Fermi-Dirac: width=0.0010 eV

Eigensolver
   Davidson(niter=2)

Densities:
  Coarse grid: 32*32*32 grid
  Fine grid: 64*64*64 grid
  Total Charge: 0.000000

Density mixing:
  Method: difference
  Backend: pulay
  Linear mixing parameter: 0.02
  Mixing with 5 old densities
  Damping of long wave oscillations: 100

Hamiltonian:
  XC and Coulomb potentials evaluated on a 64*64*64 grid
  Using the LDA Exchange-Correlation functional
  External potential:
    <gpaw.external.NoExternalPotential object at 0x2b9ce8d8b820>

Total number of cores used: 40
Parallelization over k-points: 40

Number of atoms: 10
Number of atomic orbitals: 60
Number of bands in calculation: 80
Number of valence electrons: 60
Bands to converge: occupied

... initialized

Initializing position-dependent things.

Density initialized from atomic densities
Creating initial wave functions:
  60 bands from LCAO basis set
  20 bands from random numbers

            Cr

            Cr
           O
         O      O

        O      O
             O
            Cr

            Cr

Positions:
   0 O     -0.761909   -1.386899    8.038644    ( 0.0000,  0.0000,  0.0000)
   1 O     -1.580916   -0.034443    5.742166    ( 0.0000,  0.0000,  0.0000)
   2 O     -0.823830    1.351692    8.035633    ( 0.0000,  0.0000,  0.0000)
   3 O      0.823830   -1.352830    5.739385    ( 0.0000,  0.0000,  0.0000)
   4 Cr    -0.000889   -0.002740    2.195941    ( 0.0000,  0.0000,  5.0000)
   5 Cr     0.000879   -0.002899    4.693223    ( 0.0000,  0.0000, -5.0000)
   6 Cr    -0.000879   -0.003260   11.582387    ( 0.0000,  0.0000, -5.0000)
   7 Cr     0.000891   -0.003109    9.085104    ( 0.0000,  0.0000,  5.0000)
   8 O      1.584305    0.039159    8.037821    ( 0.0000,  0.0000,  0.0000)
   9 O      0.758517    1.391610    5.741346    ( 0.0000,  0.0000,  0.0000)

Unit cell:
           periodic     x           y           z      points  spacing
  1. axis:    yes    2.342815    1.352071    4.592704    32     0.1216
  2. axis:    yes   -2.342815    1.352071    4.592704    32     0.1216
  3. axis:    yes    0.000000   -2.704886    4.592923    32     0.1216

  Lengths:   5.330085   5.330085   5.330230
  Angles:   52.139511  52.139510  52.149782

Effective grid spacing dv^(1/3) = 0.1386

                     log10-error:    total        iterations:
           time      wfs    density  energy       poisson
iter:   1  16:49:56                 -99.630756            +0.0,+0.0,-0.0
iter:   2  16:50:01  -0.65  -0.99  -100.951332            +0.0,-0.0,+0.0
iter:   3  16:50:06  -0.08  -1.00   -97.147354            +0.0,-0.0,+0.0
iter:   4  16:50:12  -0.60  -1.35   -97.336818            +0.0,-0.0,+0.0
iter:   5  16:50:17  -1.12  -1.37   -97.422632            +0.0,-0.0,+0.0
iter:   6  16:50:22  -0.38  -1.38   -98.571370            +0.0,-0.0,+0.0
iter:   7  16:50:27  -1.08  -1.54   -97.143237            +0.0,-0.0,+0.0
iter:   8  16:50:32  -2.27  -1.84   -97.264917            +0.0,-0.0,+0.0
iter:   9  16:50:37  -1.38  -1.79   -97.146493            +0.0,-0.0,+0.0
iter:  10  16:50:42  -0.60  -1.83   -97.347813            +0.0,-0.0,+0.0
iter:  11  16:50:47  -1.57  -1.72   -96.852079            +0.0,-0.0,+0.0
iter:  12  16:50:52  -2.69  -2.33   -96.854318            +0.0,-0.0,+0.0
iter:  13  16:50:57  -2.06  -2.41   -96.857375            +0.0,-0.0,+0.0
iter:  14  16:51:02  -2.76  -2.51   -96.857596            +0.0,-0.0,+0.0
iter:  15  16:51:07  -3.11  -2.53   -96.859560            +0.0,-0.0,+0.0
iter:  16  16:51:12  -2.79  -2.44   -96.872101            +0.0,-0.0,+0.0
iter:  17  16:51:18  -3.18  -2.30   -96.870884            +0.0,-0.0,+0.0
iter:  18  16:51:23  -3.38  -2.41   -96.872319            +0.0,-0.0,+0.0
iter:  19  16:51:28  -2.78  -2.33   -96.865376            +0.0,-0.0,+0.0
iter:  20  16:51:33  -3.52  -2.46   -96.866535            +0.0,-0.0,+0.0
iter:  21  16:51:38  -3.34  -2.46   -96.881340            +0.0,-0.0,+0.0
iter:  22  16:51:43  -3.02  -2.36   -96.882138            +0.0,-0.0,+0.0
iter:  23  16:51:48  -2.33  -2.30   -96.849516            +0.0,-0.0,+0.0
iter:  24  16:51:53  -3.23  -2.90   -96.850301            +0.0,-0.0,+0.0
iter:  25  16:51:58  -3.40  -3.04   -96.852742            +0.0,-0.0,+0.0
iter:  26  16:52:03  -3.53  -2.86   -96.850847            +0.0,-0.0,+0.0
iter:  27  16:52:09  -3.82  -3.08   -96.850807            +0.0,-0.0,+0.0
iter:  28  16:52:14  -4.23  -3.09   -96.850827            +0.0,-0.0,+0.0
iter:  29  16:52:19  -4.12  -3.15   -96.850945            +0.0,-0.0,+0.0
iter:  30  16:52:24  -4.77  -3.18   -96.850942            +0.0,-0.0,+0.0
iter:  31  16:52:29  -4.88  -3.20   -96.850877            +0.0,-0.0,+0.0
iter:  32  16:52:34  -4.16  -3.24   -96.851420            +0.0,-0.0,+0.0
iter:  33  16:52:39  -4.15  -3.24   -96.850845            +0.0,-0.0,+0.0
iter:  34  16:52:44  -5.10  -3.60   -96.850856            +0.0,-0.0,+0.0
iter:  35  16:52:49  -5.50  -3.58   -96.850858            +0.0,-0.0,+0.0
iter:  36  16:52:54  -5.28  -3.58   -96.850866            +0.0,-0.0,+0.0
iter:  37  16:52:59  -5.56  -3.62   -96.850862            +0.0,-0.0,+0.0
iter:  38  16:53:05  -4.93  -3.65   -96.850916            +0.0,-0.0,+0.0
iter:  39  16:53:10  -4.63  -3.61   -96.850901            +0.0,-0.0,+0.0
iter:  40  16:53:15  -5.37  -3.72   -96.850855            +0.0,-0.0,+0.0
iter:  41  16:53:20  -5.99  -4.14   -96.850855            +0.0,-0.0,+0.0
iter:  42  16:53:25  -5.85  -4.17   -96.850855            +0.0,-0.0,+0.0
iter:  43  16:53:30  -6.15  -4.19   -96.850854            +0.0,-0.0,+0.0
iter:  44  16:53:35  -6.34  -4.32   -96.850855            +0.0,-0.0,+0.0
iter:  45  16:53:40  -6.21  -4.31   -96.850854            +0.0,-0.0,+0.0
iter:  46  16:53:45  -6.40  -4.43   -96.850856            +0.0,-0.0,+0.0
iter:  47  16:53:50  -6.62  -4.40   -96.850856            +0.0,-0.0,+0.0
iter:  48  16:53:55  -6.61  -4.44   -96.850855            +0.0,-0.0,+0.0
iter:  49  16:54:00  -6.84  -4.55   -96.850855            +0.0,-0.0,+0.0
iter:  50  16:54:05  -6.95  -4.56   -96.850855            +0.0,-0.0,+0.0
iter:  51  16:54:11  -7.14  -4.58   -96.850855            +0.0,-0.0,+0.0
iter:  52  16:54:16  -7.16  -4.63   -96.850855            +0.0,-0.0,+0.0
iter:  53  16:54:21  -7.25  -4.66   -96.850855            +0.0,-0.0,+0.0
iter:  54  16:54:26  -7.24  -4.68   -96.850855            +0.0,-0.0,+0.0
iter:  55  16:54:31  -7.40  -4.75   -96.850855            +0.0,-0.0,+0.0
iter:  56  16:54:36  -7.60  -4.86   -96.850855            +0.0,-0.0,+0.0
iter:  57  16:54:41  -7.56  -4.91   -96.850855            +0.0,-0.0,+0.0
iter:  58  16:54:46  -7.69  -4.94   -96.850855            +0.0,-0.0,+0.0
iter:  59  16:54:51  -7.83  -4.91   -96.850855            +0.0,-0.0,+0.0
iter:  60  16:54:56  -7.86  -4.92   -96.850855            +0.0,-0.0,+0.0
[...]
iter: 129  17:00:46 -12.37  -8.19   -96.850855            +0.0,-0.0,+0.0
iter: 130  17:00:51 -12.79  -8.26   -96.850855            +0.0,-0.0,+0.0
iter: 131  17:00:56 -12.69  -8.33   -96.850855            +0.0,-0.0,+0.0
iter: 132  17:01:01 -13.05  -8.52   -96.850855            +0.0,-0.0,+0.0
iter: 133  17:01:06 -13.07  -8.51   -96.850855            +0.0,-0.0,+0.0
iter: 134  17:01:11 -12.65  -8.61   -96.850855            +0.0,-0.0,+0.0
iter: 135  17:01:16 -12.43  -8.69   -96.850855            +0.0,-0.0,+0.0
iter: 136  17:01:21 -11.54  -8.67   -96.850855            +0.0,-0.0,+0.0
iter: 137  17:01:26 -12.01  -8.67   -96.850855            +0.0,-0.0,+0.0
iter: 138  17:01:31 -12.48  -8.63   -96.850855            +0.0,-0.0,+0.0
iter: 139  17:01:36 -12.61  -8.66   -96.850855            +0.0,-0.0,+0.0
iter: 140  17:01:41 -13.12  -8.79   -96.850855            +0.0,-0.0,+0.0
iter: 141  17:01:46 -13.19  -8.86   -96.850855            +0.0,-0.0,+0.0
iter: 142  17:01:52 -12.30  -8.93   -96.850855            +0.0,-0.0,+0.0
iter: 143  17:01:57 -12.21  -9.08   -96.850855            +0.0,-0.0,+0.0

Converged after 143 iterations.

Dipole moment: (0.032174, 0.000354, 0.000497) |e|*Ang

Total magnetic moment: (0.000000, -0.000374, 0.000093)
Local magnetic moments:
   0 O  (-0.000019,  0.000033,  0.000231)
   1 O  ( 0.000019,  0.000033,  0.000234)
   2 O  ( 0.000034, -0.000000, -0.000788)
   3 O  (-0.000034, -0.000000, -0.000789)
   4 Cr (-0.000235, -0.000178,  2.208771)
   5 Cr ( 0.000067,  0.000001, -2.208717)
   6 Cr (-0.000067,  0.000001, -2.208727)
   7 Cr ( 0.000235, -0.000178,  2.208764)
   8 O  (-0.000017, -0.000034,  0.000552)
   9 O  ( 0.000017, -0.000034,  0.000555)

Energy contributions relative to reference atoms: (reference = -126274.181857)

Kinetic:        +34.288818
Potential:      -53.922151
External:        +0.000000
XC:             -78.951668
Entropy (-ST):   -0.000000
Local:           +1.734146
Free energy:    -96.850855
Extrapolated:   -96.850855

Showing only first 2 kpts
 Kpt  Band  Eigenvalues  Occupancy
  0    28      2.74948    1.00000
  0    29      2.75101    1.00000
  0    30      2.96459    1.00000
  0    31      2.96671    1.00000

  1    28      2.89841    1.00000
  1    29      2.89857    1.00000
  1    30      2.93939    1.00000
  1    31      2.94243    1.00000

Fermi level: 9.10394

Gap: 0.831 eV
Transition (v -> c):
  (s=0, k=63, n=59, [0.12, 0.12, 0.08]) -> (s=0, k=63, n=60, [0.12, 0.12, 0.08])
Timing:                              incl.     excl.
Hamiltonian:                         0.363     0.003   0.0% |
 Atomic:                             0.147     0.147   0.0% |
  XC Correction:                     0.000     0.000   0.0% |
 Calculate atomic Hamiltonians:      0.029     0.029   0.0% |
 Communicate:                        0.000     0.000   0.0% |
 Initialize Hamiltonian:             0.000     0.000   0.0% |
 Poisson:                            0.001     0.001   0.0% |
 XC 3D grid:                         0.182     0.182   0.0% |
LCAO initialization:                27.815     0.141   0.0% |
 LCAO eigensolver:                  11.861     0.001   0.0% |
  DenseAtomicCorrection:             0.004     0.004   0.0% |
  Distribute overlap matrix:         0.000     0.000   0.0% |
  Orbital Layouts:                   0.010     0.010   0.0% |
  Potential matrix:                 11.818    11.818   1.6% ||
  Sum over cells:                    0.029     0.029   0.0% |
 LCAO to grid:                      15.327    15.327   2.0% ||
 Set positions (LCAO WFS):           0.486     0.112   0.0% |
  Basic WFS set positions:           0.000     0.000   0.0% |
  Basis functions set positions:     0.000     0.000   0.0% |
  P tci:                             0.132     0.132   0.0% |
  ST tci:                            0.154     0.154   0.0% |
  mktci:                             0.087     0.087   0.0% |
PWDescriptor:                        0.007     0.007   0.0% |
SCF-cycle:                         733.259   200.856  26.4% |----------|
 Davidson:                         389.984    27.702   3.6% ||
  Apply H:                          81.126    81.126  10.6% |---|
  Subspace diag:                    91.415     0.052   0.0% |
   calc_h_matrix:                   85.237     3.940   0.5% |
    Apply H:                        81.298    81.298  10.7% |---|
   diagonalize:                      0.796     0.796   0.1% |
   rotate_psi:                       5.330     5.330   0.7% |
  calc. matrices:                  174.371    21.300   2.8% ||
   Apply H:                        153.071   153.071  20.1% |-------|
  diagonalize:                       6.002     6.002   0.8% |
  rotate_psi:                        9.367     9.367   1.2% |
 Density:                           95.461     0.004   0.0% |
  Atomic density matrices:           4.265     4.265   0.6% |
  Mix:                              10.283    10.283   1.3% ||
  Multipole moments:                 0.046     0.046   0.0% |
  Pseudo density:                   80.863    80.857  10.6% |---|
   Symmetrize density:               0.006     0.006   0.0% |
 Hamiltonian:                       46.894     0.309   0.0% |
  Atomic:                           12.503    12.503   1.6% ||
   XC Correction:                    0.001     0.001   0.0% |
  Calculate atomic Hamiltonians:     4.171     4.171   0.5% |
  Communicate:                       0.024     0.024   0.0% |
  Poisson:                           0.158     0.158   0.0% |
  XC 3D grid:                       29.729    29.729   3.9% |-|
 Orthonormalize:                     0.064     0.000   0.0% |
  calc_s_matrix:                     0.015     0.015   0.0% |
  inverse-cholesky:                  0.001     0.001   0.0% |
  projections:                       0.029     0.029   0.0% |
  rotate_psi_s:                      0.019     0.019   0.0% |
Set symmetry:                        0.000     0.000   0.0% |
Other:                               0.754     0.754   0.1% |
Total:                                       762.199 100.0%