User:   madkru@c119.nifl.fysik.dtu.dk
Date:   Wed Jul  6 09:22:02 2022
Arch:   x86_64
Pid:    227957
Python: 3.8.6
gpaw:   /home/niflheim/madkru/new_venv/gpaw/gpaw (1f0dfc9eae)
_gpaw:  /home/niflheim/madkru/new_venv/gpaw/build/lib.linux-x86_64-skylake-3.8/
        _gpaw.cpython-38-x86_64-linux-gnu.so (c1e45bfab3)
ase:    /home/niflheim/madkru/new_venv/ase/ase (version 3.23.0b1-ca38c75a67)
numpy:  /home/modules/software/SciPy-bundle/2020.11-foss-2020b/lib/python3.8/site-packages/numpy (version 1.19.4)
scipy:  /home/modules/software/SciPy-bundle/2020.11-foss-2020b/lib/python3.8/site-packages/scipy (version 1.5.4)
units:  Angstrom and eV
cores: 40
OpenMP: False
OMP_NUM_THREADS: 1

Input parameters:
  convergence: {density: 1e-09}
  experimental: {magmoms: [[0. 0. 0.]
 [0. 0. 0.]
 [0. 0. 0.]
 ...
 [0. 0. 5.]
 [0. 0. 0.]
 [0. 0. 0.]],
                 soc: True}
  kpts: [4 4 6]
  maxiter: 5000
  mixer: {backend: pulay,
          beta: 0.02,
          method: difference,
          nmaxold: 5,
          weight: 100}
  mode: {ecut: 600.0,
         gammacentered: False,
         name: pw}
  occupations: {name: fermi-dirac,
                width: 0.001}
  symmetry: off

System changes: positions, numbers, cell, pbc, initial_charges, initial_magmoms

Initialize ...

O-setup:
  name: Oxygen
  id: 9b9d51c344dea68c822856295a461509
  Z: 8.0
  valence: 6
  core: 2
  charge: 0.0
  file: /home/modules/software/GPAW-setups/0.9.20000/O.LDA.gz
  compensation charges: gauss, rc=0.21, lmax=2
  cutoffs: 1.17(filt), 0.83(core),
  valence states:
                energy  radius
    2s(2.00)   -23.752   0.688
    2p(4.00)    -9.195   0.598
    *s           3.459   0.688
    *p          18.016   0.598
    *d           0.000   0.619

  Using partial waves for O as LCAO basis

Cr-setup:
  name: Chromium
  id: 444e8044bc0f91048286c984738d87f5
  Z: 24.0
  valence: 6
  core: 18
  charge: 0.0
  file: /home/modules/software/GPAW-setups/0.9.20000/Cr.LDA.gz
  compensation charges: gauss, rc=0.35, lmax=2
  cutoffs: 2.14(filt), 3.04(core),
  valence states:
                energy  radius
    4s(1.00)    -4.191   1.164
    4p(0.00)    -1.079   1.217
    3d(5.00)    -3.128   1.111
    *s          23.021   1.164
    *p          26.132   1.217
    *d          24.083   1.111

  Using partial waves for Cr as LCAO basis

Reference energy: -126274.181857

Non-collinear calculation.
Magnetic moment: (0.000000, 0.000000, 0.000000)

Convergence criteria:
  Maximum total energy change: 0.0005 eV / electron
  Maximum integral of absolute density change: 1e-09 electrons
  Maximum integral of absolute eigenstate change: 4e-08 eV^2
  Maximum number of iterations: 5000

Symmetries present (total): 1

  ( 1  0  0)
  ( 0  1  0)
  ( 0  0  1)

96 k-points: 4 x 4 x 6 Monkhorst-Pack grid
96 k-points in the irreducible part of the Brillouin zone
       k-points in crystal coordinates                weights
   0:    -0.37500000   -0.37500000   -0.41666667          1/96
   1:    -0.37500000   -0.37500000   -0.25000000          1/96
   2:    -0.37500000   -0.37500000   -0.08333333          1/96
   3:    -0.37500000   -0.37500000    0.08333333          1/96
   4:    -0.37500000   -0.37500000    0.25000000          1/96
   5:    -0.37500000   -0.37500000    0.41666667          1/96
   6:    -0.37500000   -0.12500000   -0.41666667          1/96
   7:    -0.37500000   -0.12500000   -0.25000000          1/96
   8:    -0.37500000   -0.12500000   -0.08333333          1/96
   9:    -0.37500000   -0.12500000    0.08333333          1/96
          ...
  95:     0.37500000    0.37500000    0.41666667          1/96

Wave functions: Plane wave expansion
  Cutoff energy: 600.000 eV
  Number of coefficients (min, max): 2899, 2926
  Pulay-stress correction: 0.000000 eV/Ang^3 (de/decut=0.000000)
  Using FFTW library
  ScaLapack parameters: grid=1x1, blocksize=None
  Wavefunction extrapolation:
    Improved wavefunction reuse through dual PAW basis

Occupation numbers: Fermi-Dirac: width=0.0010 eV

Eigensolver
   Davidson(niter=2)

Densities:
  Coarse grid: 32*32*32 grid
  Fine grid: 64*64*64 grid
  Total Charge: 0.000000

Density mixing:
  Method: difference
  Backend: pulay
  Linear mixing parameter: 0.02
  Mixing with 5 old densities
  Damping of long wave oscillations: 100

Hamiltonian:
  XC and Coulomb potentials evaluated on a 64*64*64 grid
  Using the LDA Exchange-Correlation functional
  External potential:
    <gpaw.external.NoExternalPotential object at 0x2ad492b3f580>

Total number of cores used: 40
Parallelization over k-points: 40

Number of atoms: 10
Number of atomic orbitals: 60
Number of bands in calculation: 80
Number of valence electrons: 60
Bands to converge: occupied

... initialized

Initializing position-dependent things.

Density initialized from atomic densities
Creating initial wave functions:
  60 bands from LCAO basis set
  20 bands from random numbers

            Cr

            Cr
           O
         O      O

        O      O
             O
            Cr

            Cr

Positions:
   0 O     -0.759627   -1.390894    8.038884    ( 0.0000,  0.0000,  0.0000)
   1 O     -1.582024   -0.035901    5.740264    ( 0.0000,  0.0000,  0.0000)
   2 O     -0.821046    1.351886    8.037287    ( 0.0000,  0.0000,  0.0000)
   3 O      0.826613   -1.352632    5.741051    ( 0.0000,  0.0000,  0.0000)
   4 Cr    -0.001976    0.000544    2.195939    ( 0.0000,  0.0000,  5.0000)
   5 Cr    -0.001972   -0.000930    4.693228    ( 0.0000,  0.0000, -5.0000)
   6 Cr    -0.001967    0.000044   11.582390    ( 0.0000,  0.0000, -5.0000)
   7 Cr    -0.001974   -0.001144    9.085104    ( 0.0000,  0.0000,  5.0000)
   8 O      1.583185    0.037707    8.035906    ( 0.0000,  0.0000,  0.0000)
   9 O      0.760787    1.387610    5.741600    ( 0.0000,  0.0000,  0.0000)

Unit cell:
           periodic     x           y           z      points  spacing
  1. axis:    yes    2.342815    1.352071    4.592704    32     0.1216
  2. axis:    yes   -2.342815    1.352071    4.592704    32     0.1216
  3. axis:    yes    0.000000   -2.704886    4.592923    32     0.1216

  Lengths:   5.330085   5.330085   5.330230
  Angles:   52.139511  52.139510  52.149782

Effective grid spacing dv^(1/3) = 0.1386

                     log10-error:    total        iterations:
           time      wfs    density  energy       poisson
iter:   1  09:22:43                 -99.631220            +0.0,+0.0,-0.0
iter:   2  09:22:48  -0.65  -0.99  -100.951770            -0.0,+0.0,+0.0
iter:   3  09:22:53  -0.08  -1.00   -97.147796            -0.0,-0.0,+0.0
iter:   4  09:22:58  -0.60  -1.35   -97.337283            -0.0,-0.0,+0.0
iter:   5  09:23:04  -1.12  -1.37   -97.423338            -0.0,-0.0,+0.0
iter:   6  09:23:09  -0.38  -1.38   -98.570791            -0.0,-0.0,+0.0
iter:   7  09:23:14  -1.08  -1.54   -97.143238            -0.0,-0.0,+0.0
iter:   8  09:23:19  -2.27  -1.84   -97.264934            -0.0,-0.0,+0.0
iter:   9  09:23:24  -1.38  -1.79   -97.147292            -0.0,-0.0,+0.0
iter:  10  09:23:29  -0.60  -1.83   -97.352917            -0.0,-0.0,+0.0
iter:  11  09:23:34  -1.57  -1.72   -96.852479            -0.0,-0.0,+0.0
iter:  12  09:23:39  -2.69  -2.33   -96.854762            -0.0,-0.0,+0.0
iter:  13  09:23:44  -2.06  -2.41   -96.857542            -0.0,-0.0,+0.0
iter:  14  09:23:50  -2.74  -2.52   -96.858432            -0.0,-0.0,+0.0
iter:  15  09:23:55  -3.12  -2.52   -96.860143            -0.0,-0.0,+0.0
iter:  16  09:24:00  -2.66  -2.43   -96.877821            -0.0,-0.0,+0.0
iter:  17  09:24:05  -3.11  -2.24   -96.873422            -0.0,-0.0,+0.0
iter:  18  09:24:10  -3.18  -2.38   -96.879318            -0.0,-0.0,+0.0
iter:  19  09:24:15  -2.58  -2.28   -96.873244            -0.0,-0.0,+0.0
iter:  20  09:24:20  -2.86  -2.42   -96.857246            -0.0,-0.0,+0.0
iter:  21  09:24:25  -3.22  -2.60   -96.862206            -0.0,-0.0,+0.0
iter:  22  09:24:30  -3.19  -2.55   -96.855136            -0.0,-0.0,+0.0
iter:  23  09:24:35  -2.94  -2.70   -96.850787            -0.0,-0.0,+0.0
iter:  24  09:24:40  -3.62  -3.02   -96.851226            -0.0,+0.0,+0.0
iter:  25  09:24:46  -3.30  -3.06   -96.855315            -0.0,-0.0,+0.0
iter:  26  09:24:51  -3.38  -2.79   -96.851238            -0.0,-0.0,+0.0
iter:  27  09:24:56  -4.14  -3.50   -96.851300            -0.0,-0.0,+0.0
iter:  28  09:25:01  -4.71  -3.53   -96.851334            -0.0,+0.0,+0.0
iter:  29  09:25:06  -4.73  -3.51   -96.851351            -0.0,+0.0,+0.0
iter:  30  09:25:11  -5.00  -3.54   -96.851377            -0.0,+0.0,+0.0
iter:  31  09:25:16  -5.27  -3.56   -96.851368            -0.0,+0.0,+0.0
iter:  32  09:25:21  -5.51  -3.58   -96.851359            -0.0,+0.0,+0.0
iter:  33  09:25:26  -5.23  -3.60   -96.851347            -0.0,+0.0,+0.0
iter:  34  09:25:32  -5.51  -3.65   -96.851353            -0.0,+0.0,+0.0
iter:  35  09:25:37  -5.76  -3.72   -96.851354            -0.0,-0.0,+0.0
iter:  36  09:25:42  -5.92  -3.73   -96.851351            -0.0,-0.0,+0.0
iter:  37  09:25:47  -5.40  -3.75   -96.851359            -0.0,-0.0,+0.0
iter:  38  09:25:52  -5.91  -3.95   -96.851363            -0.0,-0.0,+0.0
iter:  39  09:25:57  -5.60  -3.91   -96.851362            -0.0,-0.0,+0.0
iter:  40  09:26:02  -6.05  -3.96   -96.851358            -0.0,-0.0,+0.0
iter:  41  09:26:07  -5.92  -3.98   -96.851354            -0.0,-0.0,+0.0
iter:  42  09:26:13  -6.11  -4.00   -96.851349            -0.0,-0.0,+0.0
iter:  43  09:26:18  -6.19  -4.07   -96.851348            -0.0,-0.0,+0.0
iter:  44  09:26:23  -6.27  -4.10   -96.851348            -0.0,-0.0,+0.0
iter:  45  09:26:28  -6.42  -4.20   -96.851347            -0.0,-0.0,+0.0
iter:  46  09:26:33  -6.73  -4.26   -96.851346            -0.0,-0.0,+0.0
iter:  47  09:26:38  -6.39  -4.31   -96.851344            -0.0,-0.0,+0.0
iter:  48  09:26:43  -6.72  -4.64   -96.851345            -0.0,-0.0,+0.0
iter:  49  09:26:49  -7.09  -4.63   -96.851345            -0.0,-0.0,+0.0
iter:  50  09:26:54  -7.21  -4.64   -96.851345            -0.0,-0.0,+0.0
iter:  51  09:26:59  -6.92  -4.67   -96.851345            -0.0,-0.0,+0.0
iter:  52  09:27:04  -7.21  -4.80   -96.851345            -0.0,-0.0,+0.0
iter:  53  09:27:09  -7.41  -4.87   -96.851345            -0.0,-0.0,+0.0
iter:  54  09:27:14  -7.50  -4.92   -96.851345            -0.0,-0.0,+0.0
iter:  55  09:27:19  -7.43  -4.98   -96.851345            -0.0,-0.0,+0.0
iter:  56  09:27:24  -7.69  -5.12   -96.851345            -0.0,-0.0,+0.0
iter:  57  09:27:30  -7.80  -5.19   -96.851345            -0.0,-0.0,+0.0
iter:  58  09:27:35  -7.83  -5.20   -96.851345            -0.0,-0.0,+0.0
iter:  59  09:27:40  -7.90  -5.20   -96.851345            -0.0,-0.0,+0.0
iter:  60  09:27:45  -7.99  -5.30   -96.851345            -0.0,-0.0,+0.0
[...]
iter: 157  09:36:01 -12.68  -8.83   -96.851345            -0.0,+0.0,+0.0
iter: 158  09:36:06 -12.26  -8.86   -96.851345            -0.0,+0.0,+0.0
iter: 159  09:36:12 -12.39  -8.89   -96.851345            -0.0,-0.0,+0.0
iter: 160  09:36:17 -12.77  -8.98   -96.851345            -0.0,+0.0,+0.0
iter: 161  09:36:22 -12.11  -9.00   -96.851345            -0.0,-0.0,+0.0
iter: 162  09:36:27 -11.91  -8.99   -96.851345            -0.0,-0.0,+0.0
iter: 163  09:36:32 -11.33  -8.98   -96.851345            -0.0,-0.0,+0.0
iter: 164  09:36:37 -11.80  -8.98   -96.851345            -0.0,-0.0,+0.0
iter: 165  09:36:42 -12.35  -8.96   -96.851345            -0.0,-0.0,+0.0
iter: 166  09:36:47 -12.28  -8.98   -96.851345            -0.0,-0.0,+0.0
iter: 167  09:36:52 -12.44  -8.97   -96.851345            -0.0,-0.0,+0.0
iter: 168  09:36:57 -11.98  -8.97   -96.851345            -0.0,-0.0,+0.0
iter: 169  09:37:03 -11.38  -9.00   -96.851345            -0.0,-0.0,+0.0
iter: 170  09:37:08 -11.77  -8.98   -96.851345            -0.0,-0.0,+0.0
iter: 171  09:37:13 -12.52  -9.02   -96.851345            -0.0,-0.0,+0.0

Converged after 171 iterations.

Dipole moment: (0.000242, -0.023935, 0.000159) |e|*Ang

Total magnetic moment: (-0.000285, -0.000000, 0.000093)
Local magnetic moments:
   0 O  (-0.000019,  0.000033,  0.000347)
   1 O  ( 0.000018,  0.000034, -0.000671)
   2 O  ( 0.000034,  0.000001,  0.000001)
   3 O  (-0.000034,  0.000001, -0.000001)
   4 Cr (-0.000153, -0.000113,  2.208795)
   5 Cr (-0.000146,  0.000119, -2.208754)
   6 Cr ( 0.000019,  0.000337, -2.208752)
   7 Cr ( 0.000012, -0.000343,  2.208795)
   8 O  (-0.000018, -0.000034, -0.000347)
   9 O  ( 0.000017, -0.000035,  0.000672)

Energy contributions relative to reference atoms: (reference = -126274.181857)

Kinetic:        +34.283628
Potential:      -53.917979
External:        +0.000000
XC:             -78.951115
Entropy (-ST):   -0.000000
Local:           +1.734121
Free energy:    -96.851345
Extrapolated:   -96.851345

Showing only first 2 kpts
 Kpt  Band  Eigenvalues  Occupancy
  0    28      2.75029    1.00000
  0    29      2.75041    1.00000
  0    30      2.96512    1.00000
  0    31      2.96563    1.00000

  1    28      2.89788    1.00000
  1    29      2.89909    1.00000
  1    30      2.94079    1.00000
  1    31      2.94145    1.00000

Fermi level: 9.05853

Gap: 0.831 eV
Transition (v -> c):
  (s=0, k=63, n=59, [0.12, 0.12, 0.08]) -> (s=0, k=63, n=60, [0.12, 0.12, 0.08])
Timing:                              incl.     excl.
Hamiltonian:                         0.331     0.002   0.0% |
 Atomic:                             0.119     0.119   0.0% |
  XC Correction:                     0.000     0.000   0.0% |
 Calculate atomic Hamiltonians:      0.020     0.020   0.0% |
 Communicate:                        0.000     0.000   0.0% |
 Initialize Hamiltonian:             0.000     0.000   0.0% |
 Poisson:                            0.001     0.001   0.0% |
 XC 3D grid:                         0.189     0.189   0.0% |
LCAO initialization:                28.143     0.142   0.0% |
 LCAO eigensolver:                  11.660     0.000   0.0% |
  DenseAtomicCorrection:             0.004     0.004   0.0% |
  Distribute overlap matrix:         0.000     0.000   0.0% |
  Orbital Layouts:                   0.009     0.009   0.0% |
  Potential matrix:                 11.620    11.620   1.3% ||
  Sum over cells:                    0.027     0.027   0.0% |
 LCAO to grid:                      15.857    15.857   1.7% ||
 Set positions (LCAO WFS):           0.484     0.112   0.0% |
  Basic WFS set positions:           0.000     0.000   0.0% |
  Basis functions set positions:     0.000     0.000   0.0% |
  P tci:                             0.129     0.129   0.0% |
  ST tci:                            0.155     0.155   0.0% |
  mktci:                             0.087     0.087   0.0% |
PWDescriptor:                        0.007     0.007   0.0% |
SCF-cycle:                         881.987   254.037  27.9% |----------|
 Davidson:                         457.821    33.057   3.6% ||
  Apply H:                          94.717    94.717  10.4% |---|
  Subspace diag:                   107.138     0.064   0.0% |
   calc_h_matrix:                   99.649     4.579   0.5% |
    Apply H:                        95.070    95.070  10.4% |---|
   diagonalize:                      0.974     0.974   0.1% |
   rotate_psi:                       6.452     6.452   0.7% |
  calc. matrices:                  204.067    24.899   2.7% ||
   Apply H:                        179.168   179.168  19.7% |-------|
  diagonalize:                       7.232     7.232   0.8% |
  rotate_psi:                       11.610    11.610   1.3% ||
 Density:                          114.253     0.005   0.0% |
  Atomic density matrices:           5.034     5.034   0.6% |
  Mix:                              12.322    12.322   1.4% ||
  Multipole moments:                 0.053     0.053   0.0% |
  Pseudo density:                   96.838    96.831  10.6% |---|
   Symmetrize density:               0.007     0.007   0.0% |
 Hamiltonian:                       55.813     0.645   0.1% |
  Atomic:                           13.759    13.758   1.5% ||
   XC Correction:                    0.001     0.001   0.0% |
  Calculate atomic Hamiltonians:     4.917     4.917   0.5% |
  Communicate:                       0.027     0.027   0.0% |
  Poisson:                           0.232     0.232   0.0% |
  XC 3D grid:                       36.233    36.233   4.0% |-|
 Orthonormalize:                     0.063     0.000   0.0% |
  calc_s_matrix:                     0.015     0.015   0.0% |
  inverse-cholesky:                  0.001     0.001   0.0% |
  projections:                       0.028     0.028   0.0% |
  rotate_psi_s:                      0.018     0.018   0.0% |
Set symmetry:                        0.000     0.000   0.0% |
Other:                               0.782     0.782   0.1% |
Total:                                       911.250 100.0%