User:   madkru@c018.nifl.fysik.dtu.dk
Date:   Wed Jul  6 17:14:09 2022
Arch:   x86_64
Pid:    244658
Python: 3.8.6
gpaw:   /home/niflheim/madkru/new_venv/gpaw/gpaw (1f0dfc9eae)
_gpaw:  /home/niflheim/madkru/new_venv/gpaw/build/lib.linux-x86_64-skylake-3.8/
        _gpaw.cpython-38-x86_64-linux-gnu.so (c1e45bfab3)
ase:    /home/niflheim/madkru/new_venv/ase/ase (version 3.23.0b1-ca38c75a67)
numpy:  /home/modules/software/SciPy-bundle/2020.11-foss-2020b/lib/python3.8/site-packages/numpy (version 1.19.4)
scipy:  /home/modules/software/SciPy-bundle/2020.11-foss-2020b/lib/python3.8/site-packages/scipy (version 1.5.4)
units:  Angstrom and eV
cores: 40
OpenMP: False
OMP_NUM_THREADS: 1

Input parameters:
  convergence: {density: 1e-09}
  experimental: {magmoms: [[0. 0. 0.]
 [0. 0. 0.]
 [0. 0. 0.]
 ...
 [0. 0. 5.]
 [0. 0. 0.]
 [0. 0. 0.]],
                 soc: True}
  kpts: [4 4 6]
  maxiter: 5000
  mixer: {backend: pulay,
          beta: 0.02,
          method: difference,
          nmaxold: 5,
          weight: 100}
  mode: {ecut: 600.0,
         gammacentered: False,
         name: pw}
  occupations: {name: fermi-dirac,
                width: 0.001}
  symmetry: off

System changes: positions, numbers, cell, pbc, initial_charges, initial_magmoms

Initialize ...

O-setup:
  name: Oxygen
  id: 9b9d51c344dea68c822856295a461509
  Z: 8.0
  valence: 6
  core: 2
  charge: 0.0
  file: /home/modules/software/GPAW-setups/0.9.20000/O.LDA.gz
  compensation charges: gauss, rc=0.21, lmax=2
  cutoffs: 1.17(filt), 0.83(core),
  valence states:
                energy  radius
    2s(2.00)   -23.752   0.688
    2p(4.00)    -9.195   0.598
    *s           3.459   0.688
    *p          18.016   0.598
    *d           0.000   0.619

  Using partial waves for O as LCAO basis

Cr-setup:
  name: Chromium
  id: 444e8044bc0f91048286c984738d87f5
  Z: 24.0
  valence: 6
  core: 18
  charge: 0.0
  file: /home/modules/software/GPAW-setups/0.9.20000/Cr.LDA.gz
  compensation charges: gauss, rc=0.35, lmax=2
  cutoffs: 2.14(filt), 3.04(core),
  valence states:
                energy  radius
    4s(1.00)    -4.191   1.164
    4p(0.00)    -1.079   1.217
    3d(5.00)    -3.128   1.111
    *s          23.021   1.164
    *p          26.132   1.217
    *d          24.083   1.111

  Using partial waves for Cr as LCAO basis

Reference energy: -126274.181857

Non-collinear calculation.
Magnetic moment: (0.000000, 0.000000, 0.000000)

Convergence criteria:
  Maximum total energy change: 0.0005 eV / electron
  Maximum integral of absolute density change: 1e-09 electrons
  Maximum integral of absolute eigenstate change: 4e-08 eV^2
  Maximum number of iterations: 5000

Symmetries present (total): 1

  ( 1  0  0)
  ( 0  1  0)
  ( 0  0  1)

96 k-points: 4 x 4 x 6 Monkhorst-Pack grid
96 k-points in the irreducible part of the Brillouin zone
       k-points in crystal coordinates                weights
   0:    -0.37500000   -0.37500000   -0.41666667          1/96
   1:    -0.37500000   -0.37500000   -0.25000000          1/96
   2:    -0.37500000   -0.37500000   -0.08333333          1/96
   3:    -0.37500000   -0.37500000    0.08333333          1/96
   4:    -0.37500000   -0.37500000    0.25000000          1/96
   5:    -0.37500000   -0.37500000    0.41666667          1/96
   6:    -0.37500000   -0.12500000   -0.41666667          1/96
   7:    -0.37500000   -0.12500000   -0.25000000          1/96
   8:    -0.37500000   -0.12500000   -0.08333333          1/96
   9:    -0.37500000   -0.12500000    0.08333333          1/96
          ...
  95:     0.37500000    0.37500000    0.41666667          1/96

Wave functions: Plane wave expansion
  Cutoff energy: 600.000 eV
  Number of coefficients (min, max): 2899, 2926
  Pulay-stress correction: 0.000000 eV/Ang^3 (de/decut=0.000000)
  Using FFTW library
  ScaLapack parameters: grid=1x1, blocksize=None
  Wavefunction extrapolation:
    Improved wavefunction reuse through dual PAW basis

Occupation numbers: Fermi-Dirac: width=0.0010 eV

Eigensolver
   Davidson(niter=2)

Densities:
  Coarse grid: 32*32*32 grid
  Fine grid: 64*64*64 grid
  Total Charge: 0.000000

Density mixing:
  Method: difference
  Backend: pulay
  Linear mixing parameter: 0.02
  Mixing with 5 old densities
  Damping of long wave oscillations: 100

Hamiltonian:
  XC and Coulomb potentials evaluated on a 64*64*64 grid
  Using the LDA Exchange-Correlation functional
  External potential:
    <gpaw.external.NoExternalPotential object at 0x2b9cf1b74040>

Total number of cores used: 40
Parallelization over k-points: 40

Number of atoms: 10
Number of atomic orbitals: 60
Number of bands in calculation: 80
Number of valence electrons: 60
Bands to converge: occupied

... initialized

Initializing position-dependent things.

Density initialized from atomic densities
Creating initial wave functions:
  60 bands from LCAO basis set
  20 bands from random numbers

            Cr

            Cr
           O
         O      O

        O      O
             O
            Cr

            Cr

Positions:
   0 O     -0.761059   -1.388260    8.038225    ( 0.0000,  0.0000,  0.0000)
   1 O     -1.581761   -0.035811    5.741755    ( 0.0000,  0.0000,  0.0000)
   2 O     -0.823830    1.351789    8.036460    ( 0.0000,  0.0000,  0.0000)
   3 O      0.823830   -1.352729    5.740215    ( 0.0000,  0.0000,  0.0000)
   4 Cr    -0.000447   -0.001426    2.195940    ( 0.0000,  0.0000,  5.0000)
   5 Cr     0.000437   -0.001580    4.693224    ( 0.0000,  0.0000, -5.0000)
   6 Cr    -0.000437   -0.001946   11.582389    ( 0.0000,  0.0000, -5.0000)
   7 Cr     0.000448   -0.001796    9.085105    ( 0.0000,  0.0000,  5.0000)
   8 O      1.583456    0.037797    8.037403    ( 0.0000,  0.0000,  0.0000)
   9 O      0.759363    1.390244    5.740935    ( 0.0000,  0.0000,  0.0000)

Unit cell:
           periodic     x           y           z      points  spacing
  1. axis:    yes    2.342815    1.352071    4.592704    32     0.1216
  2. axis:    yes   -2.342815    1.352071    4.592704    32     0.1216
  3. axis:    yes    0.000000   -2.704886    4.592923    32     0.1216

  Lengths:   5.330085   5.330085   5.330230
  Angles:   52.139511  52.139510  52.149782

Effective grid spacing dv^(1/3) = 0.1386

                     log10-error:    total        iterations:
           time      wfs    density  energy       poisson
iter:   1  17:14:52                 -99.631548            +0.0,+0.0,-0.0
iter:   2  17:14:57  -0.65  -0.99  -100.952082            +0.0,-0.0,+0.0
iter:   3  17:15:02  -0.08  -1.00   -97.148119            +0.0,-0.0,+0.0
iter:   4  17:15:07  -0.60  -1.35   -97.337627            +0.0,-0.0,+0.0
iter:   5  17:15:12  -1.12  -1.37   -97.423783            +0.0,-0.0,+0.0
iter:   6  17:15:17  -0.38  -1.38   -98.571895            +0.0,-0.0,+0.0
iter:   7  17:15:23  -1.08  -1.54   -97.143472            +0.0,-0.0,+0.0
iter:   8  17:15:28  -2.27  -1.84   -97.265240            +0.0,-0.0,+0.0
iter:   9  17:15:33  -1.38  -1.79   -97.147696            +0.0,-0.0,+0.0
iter:  10  17:15:38  -0.60  -1.83   -97.356495            +0.0,-0.0,+0.0
iter:  11  17:15:43  -1.56  -1.72   -96.852784            +0.0,-0.0,+0.0
iter:  12  17:15:48  -2.69  -2.33   -96.855091            +0.0,-0.0,+0.0
iter:  13  17:15:53  -2.06  -2.42   -96.857761            +0.0,-0.0,+0.0
iter:  14  17:15:58  -2.73  -2.52   -96.858962            +0.0,-0.0,+0.0
iter:  15  17:16:03  -3.12  -2.51   -96.860544            +0.0,-0.0,+0.0
iter:  16  17:16:09  -2.61  -2.43   -96.880720            +0.0,-0.0,+0.0
iter:  17  17:16:14  -3.08  -2.22   -96.875095            +0.0,-0.0,+0.0
iter:  18  17:16:19  -3.11  -2.37   -96.882721            +0.0,-0.0,+0.0
iter:  19  17:16:24  -2.57  -2.26   -96.866066            +0.0,-0.0,+0.0
iter:  20  17:16:29  -3.08  -2.49   -96.857171            +0.0,-0.0,+0.0
iter:  21  17:16:34  -3.47  -2.63   -96.855786            +0.0,-0.0,+0.0
iter:  22  17:16:39  -3.28  -2.70   -96.851829            +0.0,-0.0,+0.0
iter:  23  17:16:44  -3.63  -2.87   -96.851631            +0.0,-0.0,+0.0
iter:  24  17:16:49  -3.54  -2.94   -96.853129            +0.0,-0.0,+0.0
iter:  25  17:16:54  -4.10  -2.84   -96.852039            +0.0,-0.0,+0.0
iter:  26  17:17:00  -4.60  -2.93   -96.852109            +0.0,-0.0,+0.0
iter:  27  17:17:05  -4.79  -2.92   -96.852046            +0.0,-0.0,+0.0
iter:  28  17:17:10  -5.05  -2.96   -96.852019            +0.0,-0.0,+0.0
iter:  29  17:17:15  -4.76  -2.98   -96.851864            +0.0,-0.0,+0.0
iter:  30  17:17:20  -4.34  -3.01   -96.851797            +0.0,-0.0,+0.0
iter:  31  17:17:25  -4.29  -3.05   -96.852219            +0.0,-0.0,+0.0
iter:  32  17:17:30  -4.65  -3.06   -96.852436            +0.0,-0.0,+0.0
iter:  33  17:17:35  -5.09  -3.04   -96.852265            +0.0,-0.0,+0.0
iter:  34  17:17:40  -4.83  -3.08   -96.852135            +0.0,-0.0,+0.0
iter:  35  17:17:45  -5.31  -3.13   -96.852103            +0.0,-0.0,+0.0
iter:  36  17:17:50  -5.63  -3.14   -96.852062            +0.0,-0.0,+0.0
iter:  37  17:17:55  -3.96  -3.15   -96.851815            +0.0,-0.0,+0.0
iter:  38  17:18:01  -5.20  -3.44   -96.851736            +0.0,-0.0,+0.0
iter:  39  17:18:06  -5.56  -3.46   -96.851707            +0.0,-0.0,+0.0
iter:  40  17:18:11  -5.53  -3.49   -96.851733            +0.0,-0.0,+0.0
iter:  41  17:18:16  -5.47  -3.55   -96.851699            +0.0,-0.0,+0.0
iter:  42  17:18:21  -5.56  -3.60   -96.851703            +0.0,-0.0,+0.0
iter:  43  17:18:26  -5.92  -3.66   -96.851707            +0.0,-0.0,+0.0
iter:  44  17:18:31  -5.59  -3.86   -96.851695            +0.0,-0.0,+0.0
iter:  45  17:18:36  -6.30  -4.43   -96.851696            +0.0,-0.0,+0.0
iter:  46  17:18:41  -6.65  -4.43   -96.851696            +0.0,-0.0,+0.0
iter:  47  17:18:46  -6.68  -4.48   -96.851696            +0.0,-0.0,+0.0
iter:  48  17:18:52  -6.86  -4.47   -96.851696            +0.0,-0.0,+0.0
iter:  49  17:18:57  -6.95  -4.49   -96.851696            +0.0,-0.0,+0.0
iter:  50  17:19:02  -6.97  -4.55   -96.851696            +0.0,-0.0,+0.0
iter:  51  17:19:07  -6.95  -4.66   -96.851696            +0.0,-0.0,+0.0
iter:  52  17:19:12  -7.21  -4.99   -96.851696            +0.0,-0.0,+0.0
iter:  53  17:19:17  -7.41  -5.06   -96.851696            +0.0,-0.0,+0.0
iter:  54  17:19:22  -7.54  -5.09   -96.851696            +0.0,-0.0,+0.0
iter:  55  17:19:27  -7.63  -5.06   -96.851696            +0.0,-0.0,+0.0
iter:  56  17:19:32  -7.81  -5.12   -96.851696            +0.0,-0.0,+0.0
iter:  57  17:19:37  -7.82  -5.13   -96.851696            +0.0,-0.0,+0.0
iter:  58  17:19:42  -7.94  -5.12   -96.851696            +0.0,-0.0,+0.0
iter:  59  17:19:48  -7.91  -5.16   -96.851696            +0.0,-0.0,+0.0
iter:  60  17:19:53  -8.06  -5.22   -96.851696            +0.0,-0.0,+0.0
[...]
iter: 141  17:26:43 -11.83  -8.75   -96.851696            +0.0,-0.0,+0.0
iter: 142  17:26:48 -11.26  -8.75   -96.851696            +0.0,-0.0,+0.0
iter: 143  17:26:53 -11.57  -8.73   -96.851696            +0.0,-0.0,+0.0
iter: 144  17:26:58 -12.27  -8.74   -96.851696            +0.0,-0.0,+0.0
iter: 145  17:27:03 -11.79  -8.68   -96.851696            +0.0,-0.0,+0.0
iter: 146  17:27:08 -11.30  -8.82   -96.851696            +0.0,-0.0,+0.0
iter: 147  17:27:13 -11.46  -8.77   -96.851696            +0.0,-0.0,+0.0
iter: 148  17:27:19 -11.88  -8.80   -96.851696            +0.0,-0.0,+0.0
iter: 149  17:27:24 -11.43  -8.75   -96.851696            +0.0,-0.0,+0.0
iter: 150  17:27:29 -11.55  -8.79   -96.851696            +0.0,-0.0,+0.0
iter: 151  17:27:34 -11.96  -8.84   -96.851696            +0.0,-0.0,+0.0
iter: 152  17:27:39 -11.39  -8.90   -96.851696            +0.0,-0.0,+0.0
iter: 153  17:27:44 -11.48  -8.92   -96.851696            +0.0,-0.0,+0.0
iter: 154  17:27:49 -11.89  -8.97   -96.851696            +0.0,-0.0,+0.0
iter: 155  17:27:54 -11.33  -9.03   -96.851696            +0.0,-0.0,+0.0

Converged after 155 iterations.

Dipole moment: (0.016089, 0.000180, 0.000248) |e|*Ang

Total magnetic moment: (0.000000, -0.000187, 0.000093)
Local magnetic moments:
   0 O  (-0.000019,  0.000033,  0.000034)
   1 O  ( 0.000019,  0.000033,  0.000036)
   2 O  ( 0.000034,  0.000000, -0.000394)
   3 O  (-0.000034,  0.000000, -0.000394)
   4 Cr (-0.000158, -0.000258,  2.208816)
   5 Cr (-0.000007,  0.000170, -2.208768)
   6 Cr ( 0.000007,  0.000170, -2.208773)
   7 Cr ( 0.000157, -0.000258,  2.208813)
   8 O  (-0.000017, -0.000034,  0.000357)
   9 O  ( 0.000017, -0.000034,  0.000359)

Energy contributions relative to reference atoms: (reference = -126274.181857)

Kinetic:        +34.279822
Potential:      -53.914912
External:        +0.000000
XC:             -78.950710
Entropy (-ST):   -0.000000
Local:           +1.734103
Free energy:    -96.851696
Extrapolated:   -96.851696

Showing only first 2 kpts
 Kpt  Band  Eigenvalues  Occupancy
  0    28      2.74988    1.00000
  0    29      2.75064    1.00000
  0    30      2.96516    1.00000
  0    31      2.96622    1.00000

  1    28      2.89846    1.00000
  1    29      2.89854    1.00000
  1    30      2.94026    1.00000
  1    31      2.94178    1.00000

Fermi level: 9.03460

Gap: 0.831 eV
Transition (v -> c):
  (s=0, k=63, n=59, [0.12, 0.12, 0.08]) -> (s=0, k=63, n=60, [0.12, 0.12, 0.08])
Timing:                              incl.     excl.
Hamiltonian:                         0.341     0.002   0.0% |
 Atomic:                             0.125     0.125   0.0% |
  XC Correction:                     0.000     0.000   0.0% |
 Calculate atomic Hamiltonians:      0.026     0.026   0.0% |
 Communicate:                        0.000     0.000   0.0% |
 Initialize Hamiltonian:             0.001     0.001   0.0% |
 Poisson:                            0.001     0.001   0.0% |
 XC 3D grid:                         0.186     0.186   0.0% |
LCAO initialization:                28.638     0.142   0.0% |
 LCAO eigensolver:                  11.875     0.000   0.0% |
  DenseAtomicCorrection:             0.004     0.004   0.0% |
  Distribute overlap matrix:         0.000     0.000   0.0% |
  Orbital Layouts:                   0.009     0.009   0.0% |
  Potential matrix:                 11.834    11.834   1.4% ||
  Sum over cells:                    0.028     0.028   0.0% |
 LCAO to grid:                      16.136    16.136   2.0% ||
 Set positions (LCAO WFS):           0.485     0.113   0.0% |
  Basic WFS set positions:           0.000     0.000   0.0% |
  Basis functions set positions:     0.000     0.000   0.0% |
  P tci:                             0.131     0.131   0.0% |
  ST tci:                            0.155     0.155   0.0% |
  mktci:                             0.087     0.087   0.0% |
PWDescriptor:                        0.007     0.007   0.0% |
SCF-cycle:                         794.621   221.526  26.9% |----------|
 Davidson:                         418.696    29.905   3.6% ||
  Apply H:                          86.687    86.687  10.5% |---|
  Subspace diag:                    98.108     0.061   0.0% |
   calc_h_matrix:                   91.157     3.959   0.5% |
    Apply H:                        87.199    87.199  10.6% |---|
   diagonalize:                      0.871     0.871   0.1% |
   rotate_psi:                       6.019     6.019   0.7% |
  calc. matrices:                  186.693    22.033   2.7% ||
   Apply H:                        164.660   164.660  20.0% |-------|
  diagonalize:                       6.560     6.560   0.8% |
  rotate_psi:                       10.743    10.743   1.3% ||
 Density:                          103.627     0.005   0.0% |
  Atomic density matrices:           4.488     4.488   0.5% |
  Mix:                              10.985    10.985   1.3% ||
  Multipole moments:                 0.050     0.050   0.0% |
  Pseudo density:                   88.099    88.090  10.7% |---|
   Symmetrize density:               0.009     0.009   0.0% |
 Hamiltonian:                       50.705     0.414   0.1% |
  Atomic:                           12.552    12.552   1.5% ||
   XC Correction:                    0.001     0.001   0.0% |
  Calculate atomic Hamiltonians:     4.801     4.801   0.6% |
  Communicate:                       0.024     0.024   0.0% |
  Poisson:                           0.157     0.157   0.0% |
  XC 3D grid:                       32.756    32.756   4.0% |-|
 Orthonormalize:                     0.068     0.000   0.0% |
  calc_s_matrix:                     0.015     0.015   0.0% |
  inverse-cholesky:                  0.001     0.001   0.0% |
  projections:                       0.030     0.030   0.0% |
  rotate_psi_s:                      0.021     0.021   0.0% |
Set symmetry:                        0.000     0.000   0.0% |
Other:                               0.798     0.798   0.1% |
Total:                                       824.405 100.0%