User:   madkru@c119.nifl.fysik.dtu.dk
Date:   Wed Jul  6 10:46:26 2022
Arch:   x86_64
Pid:    227957
Python: 3.8.6
gpaw:   /home/niflheim/madkru/new_venv/gpaw/gpaw (1f0dfc9eae)
_gpaw:  /home/niflheim/madkru/new_venv/gpaw/build/lib.linux-x86_64-skylake-3.8/
        _gpaw.cpython-38-x86_64-linux-gnu.so (c1e45bfab3)
ase:    /home/niflheim/madkru/new_venv/ase/ase (version 3.23.0b1-ca38c75a67)
numpy:  /home/modules/software/SciPy-bundle/2020.11-foss-2020b/lib/python3.8/site-packages/numpy (version 1.19.4)
scipy:  /home/modules/software/SciPy-bundle/2020.11-foss-2020b/lib/python3.8/site-packages/scipy (version 1.5.4)
units:  Angstrom and eV
cores: 40
OpenMP: False
OMP_NUM_THREADS: 1

Input parameters:
  convergence: {density: 1e-09}
  experimental: {magmoms: [[0. 0. 0.]
 [0. 0. 0.]
 [0. 0. 0.]
 ...
 [0. 0. 5.]
 [0. 0. 0.]
 [0. 0. 0.]],
                 soc: True}
  kpts: [4 4 6]
  maxiter: 5000
  mixer: {backend: pulay,
          beta: 0.02,
          method: difference,
          nmaxold: 5,
          weight: 100}
  mode: {ecut: 600.0,
         gammacentered: False,
         name: pw}
  occupations: {name: fermi-dirac,
                width: 0.001}
  symmetry: off

System changes: positions, numbers, cell, pbc, initial_charges, initial_magmoms

Initialize ...

O-setup:
  name: Oxygen
  id: 9b9d51c344dea68c822856295a461509
  Z: 8.0
  valence: 6
  core: 2
  charge: 0.0
  file: /home/modules/software/GPAW-setups/0.9.20000/O.LDA.gz
  compensation charges: gauss, rc=0.21, lmax=2
  cutoffs: 1.17(filt), 0.83(core),
  valence states:
                energy  radius
    2s(2.00)   -23.752   0.688
    2p(4.00)    -9.195   0.598
    *s           3.459   0.688
    *p          18.016   0.598
    *d           0.000   0.619

  Using partial waves for O as LCAO basis

Cr-setup:
  name: Chromium
  id: 444e8044bc0f91048286c984738d87f5
  Z: 24.0
  valence: 6
  core: 18
  charge: 0.0
  file: /home/modules/software/GPAW-setups/0.9.20000/Cr.LDA.gz
  compensation charges: gauss, rc=0.35, lmax=2
  cutoffs: 2.14(filt), 3.04(core),
  valence states:
                energy  radius
    4s(1.00)    -4.191   1.164
    4p(0.00)    -1.079   1.217
    3d(5.00)    -3.128   1.111
    *s          23.021   1.164
    *p          26.132   1.217
    *d          24.083   1.111

  Using partial waves for Cr as LCAO basis

Reference energy: -126274.181857

Non-collinear calculation.
Magnetic moment: (0.000000, 0.000000, 0.000000)

Convergence criteria:
  Maximum total energy change: 0.0005 eV / electron
  Maximum integral of absolute density change: 1e-09 electrons
  Maximum integral of absolute eigenstate change: 4e-08 eV^2
  Maximum number of iterations: 5000

Symmetries present (total): 1

  ( 1  0  0)
  ( 0  1  0)
  ( 0  0  1)

96 k-points: 4 x 4 x 6 Monkhorst-Pack grid
96 k-points in the irreducible part of the Brillouin zone
       k-points in crystal coordinates                weights
   0:    -0.37500000   -0.37500000   -0.41666667          1/96
   1:    -0.37500000   -0.37500000   -0.25000000          1/96
   2:    -0.37500000   -0.37500000   -0.08333333          1/96
   3:    -0.37500000   -0.37500000    0.08333333          1/96
   4:    -0.37500000   -0.37500000    0.25000000          1/96
   5:    -0.37500000   -0.37500000    0.41666667          1/96
   6:    -0.37500000   -0.12500000   -0.41666667          1/96
   7:    -0.37500000   -0.12500000   -0.25000000          1/96
   8:    -0.37500000   -0.12500000   -0.08333333          1/96
   9:    -0.37500000   -0.12500000    0.08333333          1/96
          ...
  95:     0.37500000    0.37500000    0.41666667          1/96

Wave functions: Plane wave expansion
  Cutoff energy: 600.000 eV
  Number of coefficients (min, max): 2899, 2926
  Pulay-stress correction: 0.000000 eV/Ang^3 (de/decut=0.000000)
  Using FFTW library
  ScaLapack parameters: grid=1x1, blocksize=None
  Wavefunction extrapolation:
    Improved wavefunction reuse through dual PAW basis

Occupation numbers: Fermi-Dirac: width=0.0010 eV

Eigensolver
   Davidson(niter=2)

Densities:
  Coarse grid: 32*32*32 grid
  Fine grid: 64*64*64 grid
  Total Charge: 0.000000

Density mixing:
  Method: difference
  Backend: pulay
  Linear mixing parameter: 0.02
  Mixing with 5 old densities
  Damping of long wave oscillations: 100

Hamiltonian:
  XC and Coulomb potentials evaluated on a 64*64*64 grid
  Using the LDA Exchange-Correlation functional
  External potential:
    <gpaw.external.NoExternalPotential object at 0x2ad494b957f0>

Total number of cores used: 40
Parallelization over k-points: 40

Number of atoms: 10
Number of atomic orbitals: 60
Number of bands in calculation: 80
Number of valence electrons: 60
Bands to converge: occupied

... initialized

Initializing position-dependent things.

Density initialized from atomic densities
Creating initial wave functions:
  60 bands from LCAO basis set
  20 bands from random numbers

            Cr

            Cr
           O
         O      O

        O      O
             O
            Cr

            Cr

Positions:
   0 O     -0.760790   -1.388350    8.036728    ( 0.0000,  0.0000,  0.0000)
   1 O     -1.583190   -0.038456    5.742426    ( 0.0000,  0.0000,  0.0000)
   2 O     -0.826615    1.351886    8.037285    ( 0.0000,  0.0000,  0.0000)
   3 O      0.821048   -1.352626    5.741037    ( 0.0000,  0.0000,  0.0000)
   4 Cr     0.001967   -0.000767    2.195940    ( 0.0000,  0.0000,  5.0000)
   5 Cr     0.001964    0.000410    4.693223    ( 0.0000,  0.0000, -5.0000)
   6 Cr     0.001975   -0.001307   11.582392    ( 0.0000,  0.0000, -5.0000)
   7 Cr     0.001982    0.000177    9.085106    ( 0.0000,  0.0000,  5.0000)
   8 O      1.582028    0.035163    8.038065    ( 0.0000,  0.0000,  0.0000)
   9 O      0.759630    1.390147    5.739449    ( 0.0000,  0.0000,  0.0000)

Unit cell:
           periodic     x           y           z      points  spacing
  1. axis:    yes    2.342815    1.352071    4.592704    32     0.1216
  2. axis:    yes   -2.342815    1.352071    4.592704    32     0.1216
  3. axis:    yes    0.000000   -2.704886    4.592923    32     0.1216

  Lengths:   5.330085   5.330085   5.330230
  Angles:   52.139511  52.139510  52.149782

Effective grid spacing dv^(1/3) = 0.1386

                     log10-error:    total        iterations:
           time      wfs    density  energy       poisson
iter:   1  10:47:07                 -99.631224            +0.0,+0.0,+0.0
iter:   2  10:47:12  -0.65  -0.99  -100.951774            +0.0,+0.0,+0.0
iter:   3  10:47:17  -0.08  -1.00   -97.147798            +0.0,-0.0,+0.0
iter:   4  10:47:22  -0.60  -1.35   -97.337284            +0.0,-0.0,+0.0
iter:   5  10:47:27  -1.12  -1.37   -97.423338            +0.0,-0.0,+0.0
iter:   6  10:47:33  -0.38  -1.38   -98.570862            +0.0,+0.0,+0.0
iter:   7  10:47:38  -1.08  -1.54   -97.143248            +0.0,+0.0,+0.0
iter:   8  10:47:43  -2.27  -1.84   -97.264958            +0.0,-0.0,+0.0
iter:   9  10:47:48  -1.38  -1.79   -97.147285            +0.0,-0.0,+0.0
iter:  10  10:47:53  -0.60  -1.83   -97.352959            +0.0,-0.0,+0.0
iter:  11  10:47:58  -1.57  -1.72   -96.852480            +0.0,-0.0,+0.0
iter:  12  10:48:03  -2.69  -2.33   -96.854762            +0.0,-0.0,+0.0
iter:  13  10:48:08  -2.06  -2.41   -96.857545            +0.0,-0.0,+0.0
iter:  14  10:48:13  -2.74  -2.52   -96.858431            +0.0,-0.0,+0.0
iter:  15  10:48:18  -3.12  -2.52   -96.860145            +0.0,-0.0,+0.0
iter:  16  10:48:23  -2.67  -2.43   -96.877805            +0.0,-0.0,+0.0
iter:  17  10:48:28  -3.11  -2.25   -96.873425            +0.0,-0.0,+0.0
iter:  18  10:48:33  -3.18  -2.38   -96.879286            +0.0,-0.0,+0.0
iter:  19  10:48:38  -2.58  -2.28   -96.873407            +0.0,-0.0,+0.0
iter:  20  10:48:43  -2.86  -2.42   -96.857270            +0.0,-0.0,+0.0
iter:  21  10:48:48  -3.21  -2.60   -96.862418            +0.0,+0.0,+0.0
iter:  22  10:48:53  -3.18  -2.55   -96.855383            +0.0,+0.0,+0.0
iter:  23  10:48:58  -2.92  -2.69   -96.850767            +0.0,+0.0,+0.0
iter:  24  10:49:03  -3.60  -3.02   -96.851212            +0.0,+0.0,+0.0
iter:  25  10:49:08  -3.32  -3.06   -96.855142            +0.0,-0.0,+0.0
iter:  26  10:49:13  -3.38  -2.80   -96.851291            +0.0,+0.0,+0.0
iter:  27  10:49:18  -4.04  -3.40   -96.851375            +0.0,+0.0,+0.0
iter:  28  10:49:23  -4.72  -3.43   -96.851363            +0.0,+0.0,+0.0
iter:  29  10:49:28  -4.71  -3.44   -96.851378            +0.0,+0.0,+0.0
iter:  30  10:49:33  -4.87  -3.46   -96.851347            +0.0,+0.0,+0.0
iter:  31  10:49:38  -4.85  -3.53   -96.851361            +0.0,+0.0,+0.0
iter:  32  10:49:43  -4.58  -3.53   -96.851378            +0.0,+0.0,+0.0
iter:  33  10:49:48  -5.04  -3.59   -96.851347            +0.0,+0.0,+0.0
iter:  34  10:49:53  -5.28  -3.71   -96.851361            +0.0,+0.0,+0.0
iter:  35  10:49:59  -5.14  -3.66   -96.851361            +0.0,+0.0,+0.0
iter:  36  10:50:04  -5.07  -3.70   -96.851362            +0.0,+0.0,+0.0
iter:  37  10:50:09  -5.60  -3.73   -96.851364            +0.0,+0.0,+0.0
iter:  38  10:50:14  -5.41  -3.74   -96.851355            +0.0,+0.0,+0.0
iter:  39  10:50:19  -4.89  -3.73   -96.851402            +0.0,+0.0,+0.0
iter:  40  10:50:24  -5.42  -3.55   -96.851400            +0.0,+0.0,+0.0
iter:  41  10:50:29  -5.75  -3.54   -96.851364            +0.0,+0.0,+0.0
iter:  42  10:50:34  -4.68  -3.67   -96.851372            +0.0,+0.0,+0.0
iter:  43  10:50:39  -5.21  -3.88   -96.851359            +0.0,+0.0,+0.0
iter:  44  10:50:44  -5.56  -3.83   -96.851345            +0.0,+0.0,+0.0
iter:  45  10:50:49  -5.71  -4.26   -96.851346            +0.0,+0.0,+0.0
iter:  46  10:50:54  -6.30  -4.25   -96.851344            +0.0,+0.0,+0.0
iter:  47  10:50:59  -6.61  -4.48   -96.851345            +0.0,+0.0,+0.0
iter:  48  10:51:04  -6.65  -4.52   -96.851345            +0.0,+0.0,+0.0
iter:  49  10:51:09  -6.85  -4.58   -96.851345            +0.0,+0.0,+0.0
iter:  50  10:51:14  -6.97  -4.56   -96.851345            +0.0,+0.0,+0.0
iter:  51  10:51:19  -7.07  -4.63   -96.851345            +0.0,+0.0,+0.0
iter:  52  10:51:24  -7.18  -4.69   -96.851345            +0.0,+0.0,+0.0
iter:  53  10:51:29  -7.33  -4.69   -96.851345            +0.0,+0.0,+0.0
iter:  54  10:51:34  -7.21  -4.72   -96.851345            +0.0,+0.0,+0.0
iter:  55  10:51:39  -7.53  -4.86   -96.851345            +0.0,+0.0,+0.0
iter:  56  10:51:44  -7.45  -4.85   -96.851345            +0.0,+0.0,+0.0
iter:  57  10:51:49  -7.53  -5.06   -96.851345            +0.0,+0.0,+0.0
iter:  58  10:51:54  -7.77  -5.12   -96.851345            +0.0,+0.0,+0.0
iter:  59  10:51:59  -7.81  -5.24   -96.851345            +0.0,+0.0,+0.0
iter:  60  10:52:04  -7.93  -5.46   -96.851345            +0.0,+0.0,+0.0
[...]
iter: 128  10:57:45 -12.56  -8.58   -96.851345            +0.0,+0.0,+0.0
iter: 129  10:57:50 -12.71  -8.60   -96.851345            +0.0,+0.0,+0.0
iter: 130  10:57:55 -12.77  -8.73   -96.851345            +0.0,+0.0,+0.0
iter: 131  10:58:00 -12.50  -8.72   -96.851345            +0.0,+0.0,+0.0
iter: 132  10:58:05 -12.64  -8.73   -96.851345            +0.0,+0.0,+0.0
iter: 133  10:58:10 -13.12  -8.86   -96.851345            +0.0,+0.0,+0.0
iter: 134  10:58:15 -12.51  -8.86   -96.851345            +0.0,+0.0,+0.0
iter: 135  10:58:20 -12.16  -8.86   -96.851345            +0.0,+0.0,+0.0
iter: 136  10:58:25 -11.20  -8.86   -96.851345            +0.0,+0.0,+0.0
iter: 137  10:58:30 -12.00  -8.86   -96.851345            +0.0,+0.0,+0.0
iter: 138  10:58:35 -12.17  -8.89   -96.851345            +0.0,+0.0,+0.0
iter: 139  10:58:40 -11.55  -8.90   -96.851345            +0.0,+0.0,+0.0
iter: 140  10:58:45 -11.18  -8.92   -96.851345            +0.0,+0.0,+0.0
iter: 141  10:58:50 -11.81  -8.97   -96.851345            +0.0,+0.0,+0.0
iter: 142  10:58:55 -12.31  -9.08   -96.851345            +0.0,+0.0,+0.0

Converged after 142 iterations.

Dipole moment: (-0.000241, 0.023936, -0.000172) |e|*Ang

Total magnetic moment: (0.000285, 0.000000, 0.000093)
Local magnetic moments:
   0 O  (-0.000018,  0.000034, -0.000672)
   1 O  ( 0.000019,  0.000033,  0.000347)
   2 O  ( 0.000033,  0.000001, -0.000001)
   3 O  (-0.000034,  0.000001,  0.000001)
   4 Cr (-0.000013, -0.000256,  2.208796)
   5 Cr (-0.000020,  0.000250, -2.208752)
   6 Cr ( 0.000147,  0.000031, -2.208754)
   7 Cr ( 0.000155, -0.000025,  2.208797)
   8 O  (-0.000017, -0.000035,  0.000672)
   9 O  ( 0.000018, -0.000034, -0.000347)

Energy contributions relative to reference atoms: (reference = -126274.181857)

Kinetic:        +34.283781
Potential:      -53.918100
External:        +0.000000
XC:             -78.951148
Entropy (-ST):   -0.000000
Local:           +1.734122
Free energy:    -96.851345
Extrapolated:   -96.851345

Showing only first 2 kpts
 Kpt  Band  Eigenvalues  Occupancy
  0    28      2.75029    1.00000
  0    29      2.75043    1.00000
  0    30      2.96515    1.00000
  0    31      2.96563    1.00000

  1    28      2.89786    1.00000
  1    29      2.89908    1.00000
  1    30      2.94079    1.00000
  1    31      2.94144    1.00000

Fermi level: 9.06539

Gap: 0.831 eV
Transition (v -> c):
  (s=0, k=32, n=59, [-0.12, -0.12, -0.08]) -> (s=0, k=32, n=60, [-0.12, -0.12, -0.08])
Timing:                              incl.     excl.
Hamiltonian:                         0.347     0.004   0.0% |
 Atomic:                             0.118     0.118   0.0% |
  XC Correction:                     0.000     0.000   0.0% |
 Calculate atomic Hamiltonians:      0.029     0.029   0.0% |
 Communicate:                        0.000     0.000   0.0% |
 Initialize Hamiltonian:             0.001     0.001   0.0% |
 Poisson:                            0.001     0.001   0.0% |
 XC 3D grid:                         0.195     0.195   0.0% |
LCAO initialization:                25.985     0.141   0.0% |
 LCAO eigensolver:                  11.635     0.001   0.0% |
  DenseAtomicCorrection:             0.004     0.004   0.0% |
  Distribute overlap matrix:         0.000     0.000   0.0% |
  Orbital Layouts:                   0.009     0.009   0.0% |
  Potential matrix:                 11.593    11.593   1.5% ||
  Sum over cells:                    0.028     0.028   0.0% |
 LCAO to grid:                      13.728    13.728   1.8% ||
 Set positions (LCAO WFS):           0.481     0.111   0.0% |
  Basic WFS set positions:           0.000     0.000   0.0% |
  Basis functions set positions:     0.000     0.000   0.0% |
  P tci:                             0.130     0.130   0.0% |
  ST tci:                            0.153     0.153   0.0% |
  mktci:                             0.087     0.087   0.0% |
PWDescriptor:                        0.007     0.007   0.0% |
SCF-cycle:                         722.443   194.163  25.9% |---------|
 Davidson:                         388.627    27.373   3.7% ||
  Apply H:                          79.128    79.128  10.6% |---|
  Subspace diag:                    91.081     0.050   0.0% |
   calc_h_matrix:                   84.771     3.656   0.5% |
    Apply H:                        81.114    81.114  10.8% |---|
   diagonalize:                      0.808     0.808   0.1% |
   rotate_psi:                       5.453     5.453   0.7% |
  calc. matrices:                  175.415    20.992   2.8% ||
   Apply H:                        154.423   154.423  20.6% |-------|
  diagonalize:                       6.025     6.025   0.8% |
  rotate_psi:                        9.605     9.605   1.3% ||
 Density:                           93.244     0.004   0.0% |
  Atomic density matrices:           3.758     3.758   0.5% |
  Mix:                              10.126    10.126   1.4% ||
  Multipole moments:                 0.044     0.044   0.0% |
  Pseudo density:                   79.313    79.308  10.6% |---|
   Symmetrize density:               0.005     0.005   0.0% |
 Hamiltonian:                       46.344     0.476   0.1% |
  Atomic:                           11.332    11.331   1.5% ||
   XC Correction:                    0.001     0.001   0.0% |
  Calculate atomic Hamiltonians:     4.482     4.482   0.6% |
  Communicate:                       0.024     0.024   0.0% |
  Poisson:                           0.153     0.153   0.0% |
  XC 3D grid:                       29.877    29.877   4.0% |-|
 Orthonormalize:                     0.065     0.000   0.0% |
  calc_s_matrix:                     0.015     0.015   0.0% |
  inverse-cholesky:                  0.001     0.001   0.0% |
  projections:                       0.029     0.029   0.0% |
  rotate_psi_s:                      0.020     0.020   0.0% |
Set symmetry:                        0.000     0.000   0.0% |
Other:                               0.756     0.756   0.1% |
Total:                                       749.538 100.0%