User:   madkru@c018.nifl.fysik.dtu.dk
Date:   Wed Jul  6 17:40:12 2022
Arch:   x86_64
Pid:    244658
Python: 3.8.6
gpaw:   /home/niflheim/madkru/new_venv/gpaw/gpaw (1f0dfc9eae)
_gpaw:  /home/niflheim/madkru/new_venv/gpaw/build/lib.linux-x86_64-skylake-3.8/
        _gpaw.cpython-38-x86_64-linux-gnu.so (c1e45bfab3)
ase:    /home/niflheim/madkru/new_venv/ase/ase (version 3.23.0b1-ca38c75a67)
numpy:  /home/modules/software/SciPy-bundle/2020.11-foss-2020b/lib/python3.8/site-packages/numpy (version 1.19.4)
scipy:  /home/modules/software/SciPy-bundle/2020.11-foss-2020b/lib/python3.8/site-packages/scipy (version 1.5.4)
units:  Angstrom and eV
cores: 40
OpenMP: False
OMP_NUM_THREADS: 1

Input parameters:
  convergence: {density: 1e-09}
  experimental: {magmoms: [[0. 0. 0.]
 [0. 0. 0.]
 [0. 0. 0.]
 ...
 [0. 0. 5.]
 [0. 0. 0.]
 [0. 0. 0.]],
                 soc: True}
  kpts: [4 4 6]
  maxiter: 5000
  mixer: {backend: pulay,
          beta: 0.02,
          method: difference,
          nmaxold: 5,
          weight: 100}
  mode: {ecut: 600.0,
         gammacentered: False,
         name: pw}
  occupations: {name: fermi-dirac,
                width: 0.001}
  symmetry: off

System changes: positions, numbers, cell, pbc, initial_charges, initial_magmoms

Initialize ...

O-setup:
  name: Oxygen
  id: 9b9d51c344dea68c822856295a461509
  Z: 8.0
  valence: 6
  core: 2
  charge: 0.0
  file: /home/modules/software/GPAW-setups/0.9.20000/O.LDA.gz
  compensation charges: gauss, rc=0.21, lmax=2
  cutoffs: 1.17(filt), 0.83(core),
  valence states:
                energy  radius
    2s(2.00)   -23.752   0.688
    2p(4.00)    -9.195   0.598
    *s           3.459   0.688
    *p          18.016   0.598
    *d           0.000   0.619

  Using partial waves for O as LCAO basis

Cr-setup:
  name: Chromium
  id: 444e8044bc0f91048286c984738d87f5
  Z: 24.0
  valence: 6
  core: 18
  charge: 0.0
  file: /home/modules/software/GPAW-setups/0.9.20000/Cr.LDA.gz
  compensation charges: gauss, rc=0.35, lmax=2
  cutoffs: 2.14(filt), 3.04(core),
  valence states:
                energy  radius
    4s(1.00)    -4.191   1.164
    4p(0.00)    -1.079   1.217
    3d(5.00)    -3.128   1.111
    *s          23.021   1.164
    *p          26.132   1.217
    *d          24.083   1.111

  Using partial waves for Cr as LCAO basis

Reference energy: -126274.181857

Non-collinear calculation.
Magnetic moment: (0.000000, 0.000000, 0.000000)

Convergence criteria:
  Maximum total energy change: 0.0005 eV / electron
  Maximum integral of absolute density change: 1e-09 electrons
  Maximum integral of absolute eigenstate change: 4e-08 eV^2
  Maximum number of iterations: 5000

Symmetries present (total): 1

  ( 1  0  0)
  ( 0  1  0)
  ( 0  0  1)

96 k-points: 4 x 4 x 6 Monkhorst-Pack grid
96 k-points in the irreducible part of the Brillouin zone
       k-points in crystal coordinates                weights
   0:    -0.37500000   -0.37500000   -0.41666667          1/96
   1:    -0.37500000   -0.37500000   -0.25000000          1/96
   2:    -0.37500000   -0.37500000   -0.08333333          1/96
   3:    -0.37500000   -0.37500000    0.08333333          1/96
   4:    -0.37500000   -0.37500000    0.25000000          1/96
   5:    -0.37500000   -0.37500000    0.41666667          1/96
   6:    -0.37500000   -0.12500000   -0.41666667          1/96
   7:    -0.37500000   -0.12500000   -0.25000000          1/96
   8:    -0.37500000   -0.12500000   -0.08333333          1/96
   9:    -0.37500000   -0.12500000    0.08333333          1/96
          ...
  95:     0.37500000    0.37500000    0.41666667          1/96

Wave functions: Plane wave expansion
  Cutoff energy: 600.000 eV
  Number of coefficients (min, max): 2899, 2926
  Pulay-stress correction: 0.000000 eV/Ang^3 (de/decut=0.000000)
  Using FFTW library
  ScaLapack parameters: grid=1x1, blocksize=None
  Wavefunction extrapolation:
    Improved wavefunction reuse through dual PAW basis

Occupation numbers: Fermi-Dirac: width=0.0010 eV

Eigensolver
   Davidson(niter=2)

Densities:
  Coarse grid: 32*32*32 grid
  Fine grid: 64*64*64 grid
  Total Charge: 0.000000

Density mixing:
  Method: difference
  Backend: pulay
  Linear mixing parameter: 0.02
  Mixing with 5 old densities
  Damping of long wave oscillations: 100

Hamiltonian:
  XC and Coulomb potentials evaluated on a 64*64*64 grid
  Using the LDA Exchange-Correlation functional
  External potential:
    <gpaw.external.NoExternalPotential object at 0x2b9cf244d1f0>

Total number of cores used: 40
Parallelization over k-points: 40

Number of atoms: 10
Number of atomic orbitals: 60
Number of bands in calculation: 80
Number of valence electrons: 60
Bands to converge: occupied

... initialized

Initializing position-dependent things.

Density initialized from atomic densities
Creating initial wave functions:
  60 bands from LCAO basis set
  20 bands from random numbers

            Cr

            Cr
           O
         O      O

        O      O
             O
            Cr

            Cr

Positions:
   0 O     -0.760209   -1.389622    8.037806    ( 0.0000,  0.0000,  0.0000)
   1 O     -1.582607   -0.037179    5.741345    ( 0.0000,  0.0000,  0.0000)
   2 O     -0.823830    1.351886    8.037286    ( 0.0000,  0.0000,  0.0000)
   3 O      0.823830   -1.352629    5.741044    ( 0.0000,  0.0000,  0.0000)
   4 Cr    -0.000004   -0.000111    2.195939    ( 0.0000,  0.0000,  5.0000)
   5 Cr    -0.000004   -0.000260    4.693225    ( 0.0000,  0.0000, -5.0000)
   6 Cr     0.000004   -0.000632   11.582391    ( 0.0000,  0.0000, -5.0000)
   7 Cr     0.000004   -0.000483    9.085105    ( 0.0000,  0.0000,  5.0000)
   8 O      1.582607    0.036435    8.036986    ( 0.0000,  0.0000,  0.0000)
   9 O      0.760209    1.388879    5.740525    ( 0.0000,  0.0000,  0.0000)

Unit cell:
           periodic     x           y           z      points  spacing
  1. axis:    yes    2.342815    1.352071    4.592704    32     0.1216
  2. axis:    yes   -2.342815    1.352071    4.592704    32     0.1216
  3. axis:    yes    0.000000   -2.704886    4.592923    32     0.1216

  Lengths:   5.330085   5.330085   5.330230
  Angles:   52.139511  52.139510  52.149782

Effective grid spacing dv^(1/3) = 0.1386

                     log10-error:    total        iterations:
           time      wfs    density  energy       poisson
iter:   1  17:40:54                 -99.631815            +0.0,+0.0,-0.0
iter:   2  17:40:59  -0.65  -0.99  -100.952333            +0.0,+0.0,+0.0
iter:   3  17:41:04  -0.08  -1.00   -97.148373            +0.0,-0.0,+0.0
iter:   4  17:41:09  -0.60  -1.35   -97.337897            +0.0,-0.0,+0.0
iter:   5  17:41:14  -1.12  -1.37   -97.424168            +0.0,+0.0,+0.0
iter:   6  17:41:19  -0.38  -1.38   -98.571941            +0.0,+0.0,+0.0
iter:   7  17:41:24  -1.08  -1.55   -97.143552            +0.0,+0.0,+0.0
iter:   8  17:41:29  -2.27  -1.84   -97.265344            +0.0,-0.0,+0.0
iter:   9  17:41:34  -1.38  -1.79   -97.147963            +0.0,-0.0,+0.0
iter:  10  17:41:39  -0.60  -1.83   -97.359927            +0.0,-0.0,+0.0
iter:  11  17:41:44  -1.56  -1.71   -96.853010            +0.0,-0.0,+0.0
iter:  12  17:41:49  -2.68  -2.33   -96.855345            +0.0,-0.0,+0.0
iter:  13  17:41:54  -2.06  -2.42   -96.857908            +0.0,-0.0,+0.0
iter:  14  17:41:59  -2.72  -2.52   -96.859401            +0.0,-0.0,+0.0
iter:  15  17:42:04  -3.13  -2.51   -96.860831            +0.0,-0.0,+0.0
iter:  16  17:42:09  -2.56  -2.42   -96.883179            +0.0,-0.0,+0.0
iter:  17  17:42:14  -3.06  -2.20   -96.876648            +0.0,-0.0,+0.0
iter:  18  17:42:19  -3.07  -2.35   -96.885660            +0.0,-0.0,+0.0
iter:  19  17:42:24  -2.30  -2.24   -96.859495            +0.0,-0.0,+0.0
iter:  20  17:42:29  -2.92  -2.56   -96.857080            +0.0,-0.0,+0.0
iter:  21  17:42:34  -3.19  -2.63   -96.852777            +0.0,-0.0,+0.0
iter:  22  17:42:39  -3.79  -2.79   -96.856948            +0.0,+0.0,+0.0
iter:  23  17:42:44  -3.15  -2.65   -96.851728            +0.0,+0.0,+0.0
iter:  24  17:42:49  -3.42  -2.87   -96.855048            +0.0,+0.0,+0.0
iter:  25  17:42:54  -3.35  -2.72   -96.858982            +0.0,+0.0,+0.0
iter:  26  17:42:59  -3.63  -2.58   -96.861206            +0.0,+0.0,+0.0
iter:  27  17:43:04  -3.04  -2.56   -96.852073            +0.0,+0.0,+0.0
iter:  28  17:43:09  -3.67  -2.94   -96.851901            +0.0,+0.0,+0.0
iter:  29  17:43:14  -3.98  -3.10   -96.852965            +0.0,+0.0,+0.0
iter:  30  17:43:19  -4.58  -3.00   -96.852386            +0.0,+0.0,+0.0
iter:  31  17:43:24  -4.68  -3.05   -96.852204            +0.0,+0.0,+0.0
iter:  32  17:43:29  -4.96  -3.07   -96.852223            +0.0,+0.0,+0.0
iter:  33  17:43:34  -5.06  -3.09   -96.852137            +0.0,+0.0,+0.0
iter:  34  17:43:39  -4.49  -3.11   -96.852333            +0.0,+0.0,+0.0
iter:  35  17:43:44  -5.16  -3.19   -96.852211            +0.0,+0.0,+0.0
iter:  36  17:43:49  -5.51  -3.22   -96.852174            +0.0,+0.0,+0.0
iter:  37  17:43:54  -4.82  -3.24   -96.852020            +0.0,+0.0,+0.0
iter:  38  17:43:59  -5.58  -3.40   -96.852026            +0.0,+0.0,+0.0
iter:  39  17:44:04  -4.40  -3.40   -96.852176            +0.0,+0.0,+0.0
iter:  40  17:44:09  -5.06  -3.26   -96.852173            +0.0,+0.0,+0.0
iter:  41  17:44:14  -5.62  -3.28   -96.852234            +0.0,+0.0,+0.0
iter:  42  17:44:19  -5.97  -3.23   -96.852243            +0.0,+0.0,+0.0
iter:  43  17:44:24  -4.46  -3.22   -96.852032            +0.0,+0.0,+0.0
iter:  44  17:44:29  -5.12  -3.45   -96.852061            +0.0,+0.0,+0.0
iter:  45  17:44:34  -5.15  -3.42   -96.852141            +0.0,+0.0,+0.0
iter:  46  17:44:39  -5.03  -3.37   -96.852051            +0.0,+0.0,+0.0
iter:  47  17:44:44  -5.41  -3.44   -96.852043            +0.0,+0.0,+0.0
iter:  48  17:44:49  -5.93  -3.44   -96.852035            +0.0,+0.0,+0.0
iter:  49  17:44:54  -4.73  -3.44   -96.851999            +0.0,-0.0,+0.0
iter:  50  17:44:59  -4.88  -3.67   -96.852115            +0.0,+0.0,+0.0
iter:  51  17:45:04  -4.80  -3.52   -96.851985            +0.0,+0.0,+0.0
iter:  52  17:45:09  -4.52  -3.62   -96.852129            +0.0,+0.0,+0.0
iter:  53  17:45:14  -5.11  -3.37   -96.852066            +0.0,+0.0,+0.0
iter:  54  17:45:19  -5.13  -3.43   -96.852107            +0.0,+0.0,+0.0
iter:  55  17:45:24  -4.93  -3.37   -96.851991            +0.0,+0.0,+0.0
iter:  56  17:45:29  -5.21  -3.66   -96.851991            +0.0,+0.0,+0.0
iter:  57  17:45:34  -5.73  -3.86   -96.851992            +0.0,+0.0,+0.0
iter:  58  17:45:39  -4.60  -3.89   -96.852103            +0.0,+0.0,+0.0
iter:  59  17:45:44  -4.88  -3.57   -96.851972            +0.0,+0.0,+0.0
iter:  60  17:45:49  -5.77  -4.30   -96.851975            +0.0,+0.0,+0.0
[...]
iter: 161  17:54:13 -11.53  -8.69   -96.851977            +0.0,-0.0,+0.0
iter: 162  17:54:18 -11.45  -8.69   -96.851977            +0.0,+0.0,+0.0
iter: 163  17:54:23 -10.96  -8.68   -96.851977            +0.0,+0.0,+0.0
iter: 164  17:54:28 -11.89  -8.68   -96.851977            -0.0,+0.0,+0.0
iter: 165  17:54:33 -11.81  -8.69   -96.851977            +0.0,+0.0,+0.0
iter: 166  17:54:38 -11.35  -8.69   -96.851977            +0.0,+0.0,+0.0
iter: 167  17:54:43 -11.67  -8.71   -96.851977            +0.0,+0.0,+0.0
iter: 168  17:54:48 -12.35  -8.73   -96.851977            +0.0,+0.0,+0.0
iter: 169  17:54:53 -11.90  -8.74   -96.851977            +0.0,+0.0,+0.0
iter: 170  17:54:58 -11.44  -8.75   -96.851977            +0.0,+0.0,+0.0
iter: 171  17:55:03 -11.56  -8.77   -96.851977            +0.0,+0.0,+0.0
iter: 172  17:55:08 -11.60  -8.78   -96.851977            +0.0,+0.0,+0.0
iter: 173  17:55:13 -11.35  -8.84   -96.851977            +0.0,+0.0,+0.0
iter: 174  17:55:18 -11.74  -8.94   -96.851977            +0.0,+0.0,+0.0
iter: 175  17:55:23 -12.54  -9.02   -96.851977            +0.0,+0.0,+0.0

Converged after 175 iterations.

Dipole moment: (-0.000000, -0.000000, -0.000006) |e|*Ang

Total magnetic moment: (0.000000, 0.000000, 0.000093)
Local magnetic moments:
   0 O  (-0.000018,  0.000033, -0.000162)
   1 O  ( 0.000018,  0.000033, -0.000162)
   2 O  ( 0.000034,  0.000001,  0.000000)
   3 O  (-0.000034,  0.000001,  0.000000)
   4 Cr (-0.000082, -0.000177,  2.208831)
   5 Cr (-0.000082,  0.000177, -2.208788)
   6 Cr ( 0.000082,  0.000177, -2.208788)
   7 Cr ( 0.000082, -0.000177,  2.208831)
   8 O  (-0.000017, -0.000034,  0.000162)
   9 O  ( 0.000017, -0.000034,  0.000162)

Energy contributions relative to reference atoms: (reference = -126274.181857)

Kinetic:        +34.276884
Potential:      -53.912549
External:        +0.000000
XC:             -78.950401
Entropy (-ST):   -0.000000
Local:           +1.734089
Free energy:    -96.851977
Extrapolated:   -96.851977

Showing only first 2 kpts
 Kpt  Band  Eigenvalues  Occupancy
  0    28      2.75024    1.00000
  0    29      2.75028    1.00000
  0    30      2.96569    1.00000
  0    31      2.96571    1.00000

  1    28      2.89849    1.00000
  1    29      2.89852    1.00000
  1    30      2.94102    1.00000
  1    31      2.94109    1.00000

Fermi level: 9.00500

Gap: 0.832 eV
Transition (v -> c):
  (s=0, k=32, n=59, [-0.12, -0.12, -0.08]) -> (s=0, k=32, n=60, [-0.12, -0.12, -0.08])
Timing:                              incl.     excl.
Hamiltonian:                         0.341     0.003   0.0% |
 Atomic:                             0.130     0.130   0.0% |
  XC Correction:                     0.000     0.000   0.0% |
 Calculate atomic Hamiltonians:      0.027     0.027   0.0% |
 Communicate:                        0.000     0.000   0.0% |
 Initialize Hamiltonian:             0.000     0.000   0.0% |
 Poisson:                            0.001     0.001   0.0% |
 XC 3D grid:                         0.180     0.180   0.0% |
LCAO initialization:                27.346     0.142   0.0% |
 LCAO eigensolver:                  11.855     0.001   0.0% |
  DenseAtomicCorrection:             0.004     0.004   0.0% |
  Distribute overlap matrix:         0.000     0.000   0.0% |
  Orbital Layouts:                   0.010     0.010   0.0% |
  Potential matrix:                 11.814    11.814   1.3% ||
  Sum over cells:                    0.027     0.027   0.0% |
 LCAO to grid:                      14.864    14.864   1.6% ||
 Set positions (LCAO WFS):           0.485     0.113   0.0% |
  Basic WFS set positions:           0.000     0.000   0.0% |
  Basis functions set positions:     0.000     0.000   0.0% |
  P tci:                             0.130     0.130   0.0% |
  ST tci:                            0.154     0.154   0.0% |
  mktci:                             0.087     0.087   0.0% |
PWDescriptor:                        0.007     0.007   0.0% |
SCF-cycle:                         882.092   235.007  25.8% |---------|
 Davidson:                         472.772    34.370   3.8% |-|
  Apply H:                          95.454    95.454  10.5% |---|
  Subspace diag:                   111.007     0.060   0.0% |
   calc_h_matrix:                  103.295     4.681   0.5% |
    Apply H:                        98.615    98.615  10.8% |---|
   diagonalize:                      1.043     1.043   0.1% |
   rotate_psi:                       6.609     6.609   0.7% |
  calc. matrices:                  212.851    26.195   2.9% ||
   Apply H:                        186.656   186.656  20.5% |-------|
  diagonalize:                       7.445     7.445   0.8% |
  rotate_psi:                       11.644    11.644   1.3% ||
 Density:                          117.025     0.005   0.0% |
  Atomic density matrices:           4.737     4.737   0.5% |
  Mix:                              12.328    12.328   1.4% ||
  Multipole moments:                 0.055     0.055   0.0% |
  Pseudo density:                   99.900    99.892  11.0% |---|
   Symmetrize density:               0.008     0.008   0.0% |
 Hamiltonian:                       57.221     0.615   0.1% |
  Atomic:                           14.471    14.470   1.6% ||
   XC Correction:                    0.001     0.001   0.0% |
  Calculate atomic Hamiltonians:     5.600     5.600   0.6% |
  Communicate:                       0.031     0.031   0.0% |
  Poisson:                           0.175     0.175   0.0% |
  XC 3D grid:                       36.329    36.329   4.0% |-|
 Orthonormalize:                     0.068     0.000   0.0% |
  calc_s_matrix:                     0.015     0.015   0.0% |
  inverse-cholesky:                  0.001     0.001   0.0% |
  projections:                       0.031     0.031   0.0% |
  rotate_psi_s:                      0.020     0.020   0.0% |
Set symmetry:                        0.000     0.000   0.0% |
Other:                               0.754     0.754   0.1% |
Total:                                       910.541 100.0%