User:   madkru@c130.nifl.fysik.dtu.dk
Date:   Wed Jul  6 13:40:27 2022
Arch:   x86_64
Pid:    254457
Python: 3.8.6
gpaw:   /home/niflheim/madkru/new_venv/gpaw/gpaw (1f0dfc9eae)
_gpaw:  /home/niflheim/madkru/new_venv/gpaw/build/lib.linux-x86_64-skylake-3.8/
        _gpaw.cpython-38-x86_64-linux-gnu.so (c1e45bfab3)
ase:    /home/niflheim/madkru/new_venv/ase/ase (version 3.23.0b1-ca38c75a67)
numpy:  /home/modules/software/SciPy-bundle/2020.11-foss-2020b/lib/python3.8/site-packages/numpy (version 1.19.4)
scipy:  /home/modules/software/SciPy-bundle/2020.11-foss-2020b/lib/python3.8/site-packages/scipy (version 1.5.4)
units:  Angstrom and eV
cores: 40
OpenMP: False
OMP_NUM_THREADS: 1

Input parameters:
  convergence: {density: 1e-09}
  experimental: {magmoms: [[0. 0. 0.]
 [0. 0. 0.]
 [0. 0. 0.]
 ...
 [0. 0. 5.]
 [0. 0. 0.]
 [0. 0. 0.]],
                 soc: True}
  kpts: [4 4 6]
  maxiter: 5000
  mixer: {backend: pulay,
          beta: 0.02,
          method: difference,
          nmaxold: 5,
          weight: 100}
  mode: {ecut: 600.0,
         gammacentered: False,
         name: pw}
  occupations: {name: fermi-dirac,
                width: 0.001}
  symmetry: off

System changes: positions, numbers, cell, pbc, initial_charges, initial_magmoms

Initialize ...

O-setup:
  name: Oxygen
  id: 9b9d51c344dea68c822856295a461509
  Z: 8.0
  valence: 6
  core: 2
  charge: 0.0
  file: /home/modules/software/GPAW-setups/0.9.20000/O.LDA.gz
  compensation charges: gauss, rc=0.21, lmax=2
  cutoffs: 1.17(filt), 0.83(core),
  valence states:
                energy  radius
    2s(2.00)   -23.752   0.688
    2p(4.00)    -9.195   0.598
    *s           3.459   0.688
    *p          18.016   0.598
    *d           0.000   0.619

  Using partial waves for O as LCAO basis

Cr-setup:
  name: Chromium
  id: 444e8044bc0f91048286c984738d87f5
  Z: 24.0
  valence: 6
  core: 18
  charge: 0.0
  file: /home/modules/software/GPAW-setups/0.9.20000/Cr.LDA.gz
  compensation charges: gauss, rc=0.35, lmax=2
  cutoffs: 2.14(filt), 3.04(core),
  valence states:
                energy  radius
    4s(1.00)    -4.191   1.164
    4p(0.00)    -1.079   1.217
    3d(5.00)    -3.128   1.111
    *s          23.021   1.164
    *p          26.132   1.217
    *d          24.083   1.111

  Using partial waves for Cr as LCAO basis

Reference energy: -126274.181857

Non-collinear calculation.
Magnetic moment: (0.000000, 0.000000, 0.000000)

Convergence criteria:
  Maximum total energy change: 0.0005 eV / electron
  Maximum integral of absolute density change: 1e-09 electrons
  Maximum integral of absolute eigenstate change: 4e-08 eV^2
  Maximum number of iterations: 5000

Symmetries present (total): 1

  ( 1  0  0)
  ( 0  1  0)
  ( 0  0  1)

96 k-points: 4 x 4 x 6 Monkhorst-Pack grid
96 k-points in the irreducible part of the Brillouin zone
       k-points in crystal coordinates                weights
   0:    -0.37500000   -0.37500000   -0.41666667          1/96
   1:    -0.37500000   -0.37500000   -0.25000000          1/96
   2:    -0.37500000   -0.37500000   -0.08333333          1/96
   3:    -0.37500000   -0.37500000    0.08333333          1/96
   4:    -0.37500000   -0.37500000    0.25000000          1/96
   5:    -0.37500000   -0.37500000    0.41666667          1/96
   6:    -0.37500000   -0.12500000   -0.41666667          1/96
   7:    -0.37500000   -0.12500000   -0.25000000          1/96
   8:    -0.37500000   -0.12500000   -0.08333333          1/96
   9:    -0.37500000   -0.12500000    0.08333333          1/96
          ...
  95:     0.37500000    0.37500000    0.41666667          1/96

Wave functions: Plane wave expansion
  Cutoff energy: 600.000 eV
  Number of coefficients (min, max): 2899, 2926
  Pulay-stress correction: 0.000000 eV/Ang^3 (de/decut=0.000000)
  Using FFTW library
  ScaLapack parameters: grid=1x1, blocksize=None
  Wavefunction extrapolation:
    Improved wavefunction reuse through dual PAW basis

Occupation numbers: Fermi-Dirac: width=0.0010 eV

Eigensolver
   Davidson(niter=2)

Densities:
  Coarse grid: 32*32*32 grid
  Fine grid: 64*64*64 grid
  Total Charge: 0.000000

Density mixing:
  Method: difference
  Backend: pulay
  Linear mixing parameter: 0.02
  Mixing with 5 old densities
  Damping of long wave oscillations: 100

Hamiltonian:
  XC and Coulomb potentials evaluated on a 64*64*64 grid
  Using the LDA Exchange-Correlation functional
  External potential:
    <gpaw.external.NoExternalPotential object at 0x2b05ed5a1100>

Total number of cores used: 40
Parallelization over k-points: 40

Number of atoms: 10
Number of atomic orbitals: 60
Number of bands in calculation: 80
Number of valence electrons: 60
Bands to converge: occupied

... initialized

Initializing position-dependent things.

Density initialized from atomic densities
Creating initial wave functions:
  60 bands from LCAO basis set
  20 bands from random numbers

            Cr

            Cr
           O
         O      O

        O      O
             O
            Cr

            Cr

Positions:
   0 O     -0.760113   -1.389569    8.040850    ( 0.0000,  0.0000,  0.0000)
   1 O     -1.582681   -0.037127    5.744407    ( 0.0000,  0.0000,  0.0000)
   2 O     -0.823826    1.351775    8.040332    ( 0.0000,  0.0000,  0.0000)
   3 O      0.823826   -1.352746    5.744097    ( 0.0000,  0.0000,  0.0000)
   4 Cr    -0.000007   -0.000109    2.191355    ( 0.0000,  0.0000,  5.0000)
   5 Cr    -0.000005   -0.000265    4.688639    ( 0.0000,  0.0000, -5.0000)
   6 Cr    -0.000004   -0.000634   11.577808    ( 0.0000,  0.0000, -5.0000)
   7 Cr     0.000007   -0.000479    9.080525    ( 0.0000,  0.0000,  5.0000)
   8 O      1.582511    0.036491    8.040047    ( 0.0000,  0.0000,  0.0000)
   9 O      0.760293    1.388944    5.743577    ( 0.0000,  0.0000,  0.0000)

Unit cell:
           periodic     x           y           z      points  spacing
  1. axis:    yes    2.342815    1.352071    4.592704    32     0.1216
  2. axis:    yes   -2.342815    1.352071    4.592704    32     0.1216
  3. axis:    yes    0.000000   -2.704886    4.592923    32     0.1216

  Lengths:   5.330085   5.330085   5.330230
  Angles:   52.139511  52.139510  52.149782

Effective grid spacing dv^(1/3) = 0.1386

                     log10-error:    total        iterations:
           time      wfs    density  energy       poisson
iter:   1  13:41:09                 -99.629851            +0.0,+0.0,+0.0
iter:   2  13:41:15  -0.65  -0.99  -100.950526            +0.0,+0.0,+0.0
iter:   3  13:41:20  -0.08  -1.00   -97.146699            +0.0,+0.0,+0.0
iter:   4  13:41:25  -0.60  -1.35   -97.336093            +0.0,-0.0,+0.0
iter:   5  13:41:30  -1.12  -1.37   -97.421439            +0.0,-0.0,+0.0
iter:   6  13:41:35  -0.38  -1.38   -98.580929            +0.0,-0.0,+0.0
iter:   7  13:41:40  -1.07  -1.54   -97.144885            +0.0,-0.0,+0.0
iter:   8  13:41:45  -2.26  -1.84   -97.267708            +0.0,-0.0,+0.0
iter:   9  13:41:50  -1.35  -1.79   -97.143593            +0.0,-0.0,+0.0
iter:  10  13:41:55  -0.60  -1.83   -97.346983            +0.0,-0.0,+0.0
iter:  11  13:42:01  -1.57  -1.72   -96.851425            +0.0,-0.0,+0.0
iter:  12  13:42:06  -2.69  -2.33   -96.853591            +0.0,-0.0,+0.0
iter:  13  13:42:11  -2.06  -2.41   -96.856293            +0.0,-0.0,+0.0
iter:  14  13:42:16  -2.83  -2.52   -96.855291            +0.0,-0.0,+0.0
iter:  15  13:42:21  -3.39  -2.58   -96.855861            +0.0,-0.0,+0.0
iter:  16  13:42:26  -3.06  -2.53   -96.860580            +0.0,-0.0,+0.0
iter:  17  13:42:31  -3.20  -2.47   -96.867518            +0.0,-0.0,+0.0
iter:  18  13:42:36  -2.83  -2.44   -96.878465            +0.0,-0.0,+0.0
iter:  19  13:42:41  -2.43  -2.23   -96.850817            +0.0,-0.0,+0.0
iter:  20  13:42:46  -2.89  -2.75   -96.850188            +0.0,-0.0,+0.0
iter:  21  13:42:51  -3.32  -2.83   -96.850336            +0.0,-0.0,+0.0
iter:  22  13:42:56  -3.11  -2.85   -96.854547            +0.0,-0.0,+0.0
iter:  23  13:43:01  -3.63  -2.72   -96.851441            +0.0,-0.0,+0.0
iter:  24  13:43:06  -4.00  -2.88   -96.852038            +0.0,-0.0,+0.0
iter:  25  13:43:11  -4.15  -2.85   -96.852107            +0.0,-0.0,+0.0
iter:  26  13:43:16  -3.41  -2.86   -96.850245            +0.0,-0.0,+0.0
iter:  27  13:43:22  -4.13  -2.99   -96.850162            +0.0,-0.0,+0.0
iter:  28  13:43:27  -4.50  -3.04   -96.850133            +0.0,+0.0,+0.0
iter:  29  13:43:32  -3.98  -3.06   -96.850176            +0.0,+0.0,+0.0
iter:  30  13:43:37  -3.69  -3.08   -96.850715            +0.0,+0.0,+0.0
iter:  31  13:43:42  -4.58  -3.01   -96.850364            +0.0,-0.0,+0.0
iter:  32  13:43:47  -3.89  -3.14   -96.850097            +0.0,-0.0,+0.0
iter:  33  13:43:52  -4.76  -3.70   -96.850037            +0.0,-0.0,+0.0
iter:  34  13:43:57  -5.09  -3.88   -96.850047            +0.0,-0.0,+0.0
iter:  35  13:44:02  -5.01  -3.82   -96.850063            +0.0,-0.0,+0.0
iter:  36  13:44:07  -5.28  -3.83   -96.850075            +0.0,-0.0,+0.0
iter:  37  13:44:12  -5.59  -3.81   -96.850075            +0.0,-0.0,+0.0
iter:  38  13:44:17  -5.62  -3.82   -96.850060            +0.0,-0.0,+0.0
iter:  39  13:44:23  -5.60  -3.80   -96.850074            +0.0,-0.0,+0.0
iter:  40  13:44:28  -5.90  -3.80   -96.850066            +0.0,-0.0,+0.0
iter:  41  13:44:33  -5.96  -3.82   -96.850061            +0.0,-0.0,+0.0
iter:  42  13:44:38  -6.03  -3.84   -96.850052            +0.0,-0.0,+0.0
iter:  43  13:44:43  -5.91  -3.89   -96.850043            +0.0,-0.0,+0.0
iter:  44  13:44:48  -5.88  -3.95   -96.850044            +0.0,-0.0,+0.0
iter:  45  13:44:53  -6.15  -3.99   -96.850045            +0.0,-0.0,+0.0
iter:  46  13:44:58  -6.16  -4.01   -96.850045            +0.0,-0.0,+0.0
iter:  47  13:45:03  -6.26  -3.99   -96.850044            +0.0,-0.0,+0.0
iter:  48  13:45:08  -6.25  -4.00   -96.850043            +0.0,-0.0,+0.0
iter:  49  13:45:14  -6.11  -4.05   -96.850044            +0.0,-0.0,+0.0
iter:  50  13:45:19  -6.03  -4.25   -96.850042            +0.0,-0.0,+0.0
iter:  51  13:45:24  -6.37  -4.34   -96.850042            +0.0,-0.0,+0.0
iter:  52  13:45:29  -6.60  -4.34   -96.850042            +0.0,-0.0,+0.0
iter:  53  13:45:34  -6.68  -4.37   -96.850042            +0.0,-0.0,+0.0
iter:  54  13:45:39  -6.77  -4.48   -96.850042            +0.0,-0.0,+0.0
iter:  55  13:45:44  -6.63  -4.62   -96.850042            +0.0,-0.0,+0.0
iter:  56  13:45:49  -7.04  -4.75   -96.850042            +0.0,-0.0,+0.0
iter:  57  13:45:55  -7.01  -4.70   -96.850043            +0.0,-0.0,+0.0
iter:  58  13:46:00  -7.09  -4.67   -96.850043            +0.0,-0.0,+0.0
iter:  59  13:46:05  -7.37  -4.60   -96.850043            +0.0,-0.0,+0.0
iter:  60  13:46:10  -7.37  -4.66   -96.850042            +0.0,-0.0,+0.0
[...]
iter: 127  13:51:52 -12.33  -7.95   -96.850042            +0.0,-0.0,+0.0
iter: 128  13:51:57 -11.96  -8.01   -96.850042            +0.0,-0.0,+0.0
iter: 129  13:52:02 -11.25  -7.99   -96.850042            +0.0,-0.0,+0.0
iter: 130  13:52:07 -11.66  -7.91   -96.850042            +0.0,-0.0,+0.0
iter: 131  13:52:12 -12.27  -8.04   -96.850042            +0.0,-0.0,+0.0
iter: 132  13:52:17 -11.99  -8.18   -96.850042            +0.0,-0.0,+0.0
iter: 133  13:52:22 -11.01  -8.24   -96.850042            +0.0,-0.0,+0.0
iter: 134  13:52:28 -11.71  -8.26   -96.850042            +0.0,-0.0,+0.0
iter: 135  13:52:33 -11.94  -8.36   -96.850042            +0.0,-0.0,+0.0
iter: 136  13:52:38 -11.96  -8.37   -96.850042            +0.0,-0.0,+0.0
iter: 137  13:52:43 -11.26  -8.40   -96.850042            +0.0,-0.0,+0.0
iter: 138  13:52:48 -11.55  -8.74   -96.850042            +0.0,-0.0,+0.0
iter: 139  13:52:53 -12.22  -8.85   -96.850042            +0.0,-0.0,+0.0
iter: 140  13:52:58 -11.52  -8.95   -96.850042            +0.0,-0.0,+0.0
iter: 141  13:53:03 -11.47  -9.11   -96.850042            +0.0,-0.0,+0.0

Converged after 141 iterations.

Dipole moment: (0.000149, 0.000124, -0.020973) |e|*Ang

Total magnetic moment: (0.000001, -0.000002, 0.000078)
Local magnetic moments:
   0 O  (-0.000012,  0.000037, -0.000242)
   1 O  ( 0.000012,  0.000037, -0.000246)
   2 O  ( 0.000034, -0.000006, -0.000087)
   3 O  (-0.000034, -0.000006, -0.000086)
   4 Cr (-0.000084, -0.000100,  2.208904)
   5 Cr (-0.000083,  0.000100, -2.208450)
   6 Cr ( 0.000084,  0.000099, -2.208444)
   7 Cr ( 0.000084, -0.000100,  2.208906)
   8 O  (-0.000023, -0.000031,  0.000079)
   9 O  ( 0.000023, -0.000031,  0.000081)

Energy contributions relative to reference atoms: (reference = -126274.181857)

Kinetic:        +34.307464
Potential:      -53.938071
External:        +0.000000
XC:             -78.953649
Entropy (-ST):   -0.000000
Local:           +1.734214
Free energy:    -96.850042
Extrapolated:   -96.850042

Showing only first 2 kpts
 Kpt  Band  Eigenvalues  Occupancy
  0    28      2.74841    1.00000
  0    29      2.75221    1.00000
  0    30      2.96347    1.00000
  0    31      2.96799    1.00000

  1    28      2.89358    1.00000
  1    29      2.90364    1.00000
  1    30      2.93925    1.00000
  1    31      2.94277    1.00000

Fermi level: 9.02563

Gap: 0.826 eV
Transition (v -> c):
  (s=0, k=63, n=59, [0.12, 0.12, 0.08]) -> (s=0, k=63, n=60, [0.12, 0.12, 0.08])
Timing:                              incl.     excl.
Hamiltonian:                         0.338     0.003   0.0% |
 Atomic:                             0.110     0.110   0.0% |
  XC Correction:                     0.000     0.000   0.0% |
 Calculate atomic Hamiltonians:      0.024     0.024   0.0% |
 Communicate:                        0.000     0.000   0.0% |
 Initialize Hamiltonian:             0.001     0.001   0.0% |
 Poisson:                            0.001     0.001   0.0% |
 XC 3D grid:                         0.199     0.199   0.0% |
LCAO initialization:                28.212     0.142   0.0% |
 LCAO eigensolver:                  11.602     0.000   0.0% |
  DenseAtomicCorrection:             0.004     0.004   0.0% |
  Distribute overlap matrix:         0.000     0.000   0.0% |
  Orbital Layouts:                   0.010     0.010   0.0% |
  Potential matrix:                 11.560    11.560   1.5% ||
  Sum over cells:                    0.028     0.028   0.0% |
 LCAO to grid:                      15.978    15.978   2.1% ||
 Set positions (LCAO WFS):           0.490     0.114   0.0% |
  Basic WFS set positions:           0.000     0.000   0.0% |
  Basis functions set positions:     0.000     0.000   0.0% |
  P tci:                             0.131     0.131   0.0% |
  ST tci:                            0.157     0.157   0.0% |
  mktci:                             0.088     0.088   0.0% |
PWDescriptor:                        0.007     0.007   0.0% |
SCF-cycle:                         727.292   191.875  25.4% |---------|
 Davidson:                         394.192    27.294   3.6% ||
  Apply H:                          81.716    81.716  10.8% |---|
  Subspace diag:                    92.225     0.051   0.0% |
   calc_h_matrix:                   85.997     3.669   0.5% |
    Apply H:                        82.328    82.328  10.9% |---|
   diagonalize:                      0.746     0.746   0.1% |
   rotate_psi:                       5.430     5.430   0.7% |
  calc. matrices:                  177.164    20.396   2.7% ||
   Apply H:                        156.768   156.768  20.7% |-------|
  diagonalize:                       6.004     6.004   0.8% |
  rotate_psi:                        9.787     9.787   1.3% ||
 Density:                           94.794     0.004   0.0% |
  Atomic density matrices:           3.867     3.867   0.5% |
  Mix:                              10.045    10.045   1.3% ||
  Multipole moments:                 0.044     0.044   0.0% |
  Pseudo density:                   80.834    80.828  10.7% |---|
   Symmetrize density:               0.007     0.007   0.0% |
 Hamiltonian:                       46.360     0.298   0.0% |
  Atomic:                           12.437    12.436   1.6% ||
   XC Correction:                    0.001     0.001   0.0% |
  Calculate atomic Hamiltonians:     4.020     4.020   0.5% |
  Communicate:                       0.041     0.041   0.0% |
  Poisson:                           0.160     0.160   0.0% |
  XC 3D grid:                       29.404    29.404   3.9% |-|
 Orthonormalize:                     0.070     0.001   0.0% |
  calc_s_matrix:                     0.016     0.016   0.0% |
  inverse-cholesky:                  0.001     0.001   0.0% |
  projections:                       0.032     0.032   0.0% |
  rotate_psi_s:                      0.020     0.020   0.0% |
Set symmetry:                        0.000     0.000   0.0% |
Other:                               0.802     0.802   0.1% |
Total:                                       756.651 100.0%