User:   madkru@c130.nifl.fysik.dtu.dk
Date:   Wed Jul  6 15:15:38 2022
Arch:   x86_64
Pid:    254457
Python: 3.8.6
gpaw:   /home/niflheim/madkru/new_venv/gpaw/gpaw (1f0dfc9eae)
_gpaw:  /home/niflheim/madkru/new_venv/gpaw/build/lib.linux-x86_64-skylake-3.8/
        _gpaw.cpython-38-x86_64-linux-gnu.so (c1e45bfab3)
ase:    /home/niflheim/madkru/new_venv/ase/ase (version 3.23.0b1-ca38c75a67)
numpy:  /home/modules/software/SciPy-bundle/2020.11-foss-2020b/lib/python3.8/site-packages/numpy (version 1.19.4)
scipy:  /home/modules/software/SciPy-bundle/2020.11-foss-2020b/lib/python3.8/site-packages/scipy (version 1.5.4)
units:  Angstrom and eV
cores: 40
OpenMP: False
OMP_NUM_THREADS: 1

Input parameters:
  convergence: {density: 1e-09}
  experimental: {magmoms: [[0. 0. 0.]
 [0. 0. 0.]
 [0. 0. 0.]
 ...
 [0. 0. 5.]
 [0. 0. 0.]
 [0. 0. 0.]],
                 soc: True}
  kpts: [4 4 6]
  maxiter: 5000
  mixer: {backend: pulay,
          beta: 0.02,
          method: difference,
          nmaxold: 5,
          weight: 100}
  mode: {ecut: 600.0,
         gammacentered: False,
         name: pw}
  occupations: {name: fermi-dirac,
                width: 0.001}
  symmetry: off

System changes: positions, numbers, cell, pbc, initial_charges, initial_magmoms

Initialize ...

O-setup:
  name: Oxygen
  id: 9b9d51c344dea68c822856295a461509
  Z: 8.0
  valence: 6
  core: 2
  charge: 0.0
  file: /home/modules/software/GPAW-setups/0.9.20000/O.LDA.gz
  compensation charges: gauss, rc=0.21, lmax=2
  cutoffs: 1.17(filt), 0.83(core),
  valence states:
                energy  radius
    2s(2.00)   -23.752   0.688
    2p(4.00)    -9.195   0.598
    *s           3.459   0.688
    *p          18.016   0.598
    *d           0.000   0.619

  Using partial waves for O as LCAO basis

Cr-setup:
  name: Chromium
  id: 444e8044bc0f91048286c984738d87f5
  Z: 24.0
  valence: 6
  core: 18
  charge: 0.0
  file: /home/modules/software/GPAW-setups/0.9.20000/Cr.LDA.gz
  compensation charges: gauss, rc=0.35, lmax=2
  cutoffs: 2.14(filt), 3.04(core),
  valence states:
                energy  radius
    4s(1.00)    -4.191   1.164
    4p(0.00)    -1.079   1.217
    3d(5.00)    -3.128   1.111
    *s          23.021   1.164
    *p          26.132   1.217
    *d          24.083   1.111

  Using partial waves for Cr as LCAO basis

Reference energy: -126274.181857

Non-collinear calculation.
Magnetic moment: (0.000000, 0.000000, 0.000000)

Convergence criteria:
  Maximum total energy change: 0.0005 eV / electron
  Maximum integral of absolute density change: 1e-09 electrons
  Maximum integral of absolute eigenstate change: 4e-08 eV^2
  Maximum number of iterations: 5000

Symmetries present (total): 1

  ( 1  0  0)
  ( 0  1  0)
  ( 0  0  1)

96 k-points: 4 x 4 x 6 Monkhorst-Pack grid
96 k-points in the irreducible part of the Brillouin zone
       k-points in crystal coordinates                weights
   0:    -0.37500000   -0.37500000   -0.41666667          1/96
   1:    -0.37500000   -0.37500000   -0.25000000          1/96
   2:    -0.37500000   -0.37500000   -0.08333333          1/96
   3:    -0.37500000   -0.37500000    0.08333333          1/96
   4:    -0.37500000   -0.37500000    0.25000000          1/96
   5:    -0.37500000   -0.37500000    0.41666667          1/96
   6:    -0.37500000   -0.12500000   -0.41666667          1/96
   7:    -0.37500000   -0.12500000   -0.25000000          1/96
   8:    -0.37500000   -0.12500000   -0.08333333          1/96
   9:    -0.37500000   -0.12500000    0.08333333          1/96
          ...
  95:     0.37500000    0.37500000    0.41666667          1/96

Wave functions: Plane wave expansion
  Cutoff energy: 600.000 eV
  Number of coefficients (min, max): 2899, 2926
  Pulay-stress correction: 0.000000 eV/Ang^3 (de/decut=0.000000)
  Using FFTW library
  ScaLapack parameters: grid=1x1, blocksize=None
  Wavefunction extrapolation:
    Improved wavefunction reuse through dual PAW basis

Occupation numbers: Fermi-Dirac: width=0.0010 eV

Eigensolver
   Davidson(niter=2)

Densities:
  Coarse grid: 32*32*32 grid
  Fine grid: 64*64*64 grid
  Total Charge: 0.000000

Density mixing:
  Method: difference
  Backend: pulay
  Linear mixing parameter: 0.02
  Mixing with 5 old densities
  Damping of long wave oscillations: 100

Hamiltonian:
  XC and Coulomb potentials evaluated on a 64*64*64 grid
  Using the LDA Exchange-Correlation functional
  External potential:
    <gpaw.external.NoExternalPotential object at 0x2b05f6b1b610>

Total number of cores used: 40
Parallelization over k-points: 40

Number of atoms: 10
Number of atomic orbitals: 60
Number of bands in calculation: 80
Number of valence electrons: 60
Bands to converge: occupied

... initialized

Initializing position-dependent things.

Density initialized from atomic densities
Creating initial wave functions:
  60 bands from LCAO basis set
  20 bands from random numbers

            Cr

            Cr
           O
         O      O

        O      O
             O
            Cr

            Cr

Positions:
   0 O     -0.760281   -1.389662    8.035523    ( 0.0000,  0.0000,  0.0000)
   1 O     -1.582551   -0.037217    5.739049    ( 0.0000,  0.0000,  0.0000)
   2 O     -0.823833    1.351969    8.035002    ( 0.0000,  0.0000,  0.0000)
   3 O      0.823833   -1.352541    5.738755    ( 0.0000,  0.0000,  0.0000)
   4 Cr    -0.000002   -0.000113    2.199378    ( 0.0000,  0.0000,  5.0000)
   5 Cr    -0.000004   -0.000257    4.696665    ( 0.0000,  0.0000, -5.0000)
   6 Cr     0.000011   -0.000630   11.585828    ( 0.0000,  0.0000, -5.0000)
   7 Cr     0.000002   -0.000486    9.088540    ( 0.0000,  0.0000,  5.0000)
   8 O      1.582679    0.036394    8.034690    ( 0.0000,  0.0000,  0.0000)
   9 O      0.760145    1.388829    5.738235    ( 0.0000,  0.0000,  0.0000)

Unit cell:
           periodic     x           y           z      points  spacing
  1. axis:    yes    2.342815    1.352071    4.592704    32     0.1216
  2. axis:    yes   -2.342815    1.352071    4.592704    32     0.1216
  3. axis:    yes    0.000000   -2.704886    4.592923    32     0.1216

  Lengths:   5.330085   5.330085   5.330230
  Angles:   52.139511  52.139510  52.149782

Effective grid spacing dv^(1/3) = 0.1386

                     log10-error:    total        iterations:
           time      wfs    density  energy       poisson
iter:   1  15:16:20                 -99.630713            +0.0,+0.0,-0.0
iter:   2  15:16:25  -0.65  -0.99  -100.951319            -0.0,-0.0,+0.0
iter:   3  15:16:31  -0.08  -1.00   -97.147430            -0.0,-0.0,+0.0
iter:   4  15:16:36  -0.60  -1.35   -97.336883            -0.0,+0.0,+0.0
iter:   5  15:16:41  -1.12  -1.37   -97.422643            -0.0,+0.0,+0.0
iter:   6  15:16:46  -0.38  -1.38   -98.577140            -0.0,+0.0,+0.0
iter:   7  15:16:51  -1.08  -1.54   -97.144191            -0.0,+0.0,+0.0
iter:   8  15:16:56  -2.26  -1.84   -97.266504            -0.0,+0.0,+0.0
iter:   9  15:17:01  -1.37  -1.79   -97.146168            -0.0,+0.0,+0.0
iter:  10  15:17:06  -0.60  -1.83   -97.350267            -0.0,+0.0,+0.0
iter:  11  15:17:11  -1.57  -1.72   -96.852168            -0.0,+0.0,+0.0
iter:  12  15:17:16  -2.69  -2.33   -96.854383            -0.0,+0.0,+0.0
iter:  13  15:17:21  -2.06  -2.41   -96.856898            -0.0,+0.0,+0.0
iter:  14  15:17:26  -2.79  -2.53   -96.856831            -0.0,+0.0,+0.0
iter:  15  15:17:31  -3.28  -2.55   -96.857941            -0.0,+0.0,+0.0
iter:  16  15:17:36  -2.87  -2.48   -96.867945            -0.0,+0.0,+0.0
iter:  17  15:17:41  -3.19  -2.35   -96.870642            -0.0,+0.0,+0.0
iter:  18  15:17:46  -3.30  -2.41   -96.873170            -0.0,+0.0,+0.0
iter:  19  15:17:51  -2.52  -2.31   -96.855178            -0.0,+0.0,+0.0
iter:  20  15:17:56  -3.07  -2.64   -96.852764            -0.0,+0.0,+0.0
iter:  21  15:18:01  -3.51  -2.74   -96.853412            -0.0,+0.0,+0.0
iter:  22  15:18:06  -3.37  -2.75   -96.856983            -0.0,+0.0,+0.0
iter:  23  15:18:11  -4.22  -2.65   -96.855628            -0.0,+0.0,+0.0
iter:  24  15:18:16  -4.08  -2.68   -96.853811            -0.0,+0.0,+0.0
iter:  25  15:18:21  -3.44  -2.75   -96.851930            -0.0,+0.0,+0.0
iter:  26  15:18:26  -3.77  -2.80   -96.851586            -0.0,+0.0,+0.0
iter:  27  15:18:31  -3.53  -2.83   -96.851125            -0.0,+0.0,+0.0
iter:  28  15:18:36  -3.77  -2.98   -96.851593            -0.0,+0.0,+0.0
iter:  29  15:18:41  -3.95  -2.97   -96.851264            -0.0,+0.0,+0.0
iter:  30  15:18:46  -4.02  -3.02   -96.851416            -0.0,+0.0,+0.0
iter:  31  15:18:51  -4.28  -3.03   -96.851392            -0.0,+0.0,+0.0
iter:  32  15:18:56  -4.36  -3.05   -96.851274            -0.0,+0.0,+0.0
iter:  33  15:19:01  -4.59  -3.08   -96.851232            -0.0,+0.0,+0.0
iter:  34  15:19:06  -4.98  -3.08   -96.851237            -0.0,+0.0,+0.0
iter:  35  15:19:11  -5.33  -3.07   -96.851219            -0.0,+0.0,+0.0
iter:  36  15:19:16  -4.27  -3.08   -96.850956            -0.0,+0.0,+0.0
iter:  37  15:19:21  -4.53  -3.42   -96.850988            -0.0,+0.0,+0.0
iter:  38  15:19:26  -4.93  -3.51   -96.851001            -0.0,+0.0,+0.0
iter:  39  15:19:31  -5.11  -3.51   -96.850997            -0.0,+0.0,+0.0
iter:  40  15:19:36  -5.09  -3.52   -96.850963            -0.0,+0.0,+0.0
iter:  41  15:19:41  -5.41  -3.54   -96.850967            -0.0,+0.0,+0.0
iter:  42  15:19:46  -5.38  -3.53   -96.850941            -0.0,+0.0,+0.0
iter:  43  15:19:51  -5.72  -3.55   -96.850926            -0.0,+0.0,+0.0
iter:  44  15:19:56  -6.06  -3.62   -96.850924            -0.0,+0.0,+0.0
iter:  45  15:20:01  -5.80  -3.63   -96.850947            -0.0,+0.0,+0.0
iter:  46  15:20:06  -5.61  -3.60   -96.850916            -0.0,+0.0,+0.0
iter:  47  15:20:11  -5.83  -3.74   -96.850905            -0.0,+0.0,+0.0
iter:  48  15:20:16  -6.37  -3.76   -96.850905            -0.0,+0.0,+0.0
iter:  49  15:20:21  -6.10  -3.80   -96.850912            -0.0,+0.0,+0.0
iter:  50  15:20:26  -6.10  -3.85   -96.850906            -0.0,+0.0,+0.0
iter:  51  15:20:31  -6.11  -3.89   -96.850897            -0.0,+0.0,+0.0
iter:  52  15:20:36  -6.49  -4.04   -96.850894            -0.0,+0.0,+0.0
iter:  53  15:20:41  -6.40  -4.10   -96.850890            -0.0,+0.0,+0.0
iter:  54  15:20:46  -6.33  -4.24   -96.850890            -0.0,+0.0,+0.0
iter:  55  15:20:51  -6.80  -4.37   -96.850889            -0.0,+0.0,+0.0
iter:  56  15:20:56  -6.73  -4.35   -96.850890            -0.0,+0.0,+0.0
iter:  57  15:21:01  -6.68  -4.33   -96.850891            -0.0,+0.0,+0.0
iter:  58  15:21:06  -7.16  -4.32   -96.850890            -0.0,+0.0,+0.0
iter:  59  15:21:11  -7.12  -4.35   -96.850891            -0.0,+0.0,+0.0
iter:  60  15:21:16  -7.03  -4.34   -96.850890            -0.0,+0.0,+0.0
[...]
iter: 163  15:29:51 -12.68  -7.78   -96.850889            -0.0,+0.0,+0.0
iter: 164  15:29:56 -12.80  -7.79   -96.850889            -0.0,+0.0,+0.0
iter: 165  15:30:01 -11.66  -7.93   -96.850889            -0.0,+0.0,+0.0
iter: 166  15:30:06 -11.68  -8.03   -96.850889            -0.0,+0.0,+0.0
iter: 167  15:30:11 -12.56  -8.03   -96.850889            -0.0,+0.0,+0.0
iter: 168  15:30:16 -11.77  -8.11   -96.850889            -0.0,+0.0,+0.0
iter: 169  15:30:21 -11.42  -8.13   -96.850889            -0.0,+0.0,+0.0
iter: 170  15:30:26 -11.28  -8.24   -96.850889            -0.0,+0.0,+0.0
iter: 171  15:30:31 -11.00  -8.30   -96.850889            -0.0,+0.0,+0.0
iter: 172  15:30:36 -11.89  -8.31   -96.850889            -0.0,+0.0,+0.0
iter: 173  15:30:41 -11.82  -8.29   -96.850889            -0.0,+0.0,+0.0
iter: 174  15:30:46 -11.17  -8.57   -96.850889            -0.0,+0.0,+0.0
iter: 175  15:30:51 -11.77  -8.63   -96.850889            -0.0,+0.0,+0.0
iter: 176  15:30:56 -12.09  -8.77   -96.850889            -0.0,+0.0,+0.0
iter: 177  15:31:01 -12.58  -9.00   -96.850889            -0.0,+0.0,+0.0

Converged after 177 iterations.

Dipole moment: (-0.000111, -0.000092, 0.015720) |e|*Ang

Total magnetic moment: (-0.000000, 0.000002, 0.000103)
Local magnetic moments:
   0 O  (-0.000023,  0.000031, -0.000101)
   1 O  ( 0.000023,  0.000031, -0.000098)
   2 O  ( 0.000034,  0.000006,  0.000065)
   3 O  (-0.000034,  0.000006,  0.000065)
   4 Cr (-0.000083, -0.000119,  2.208601)
   5 Cr (-0.000083,  0.000120, -2.208868)
   6 Cr ( 0.000082,  0.000120, -2.208872)
   7 Cr ( 0.000083, -0.000119,  2.208601)
   8 O  (-0.000013, -0.000037,  0.000224)
   9 O  ( 0.000013, -0.000037,  0.000223)

Energy contributions relative to reference atoms: (reference = -126274.181857)

Kinetic:        +34.294138
Potential:      -53.926952
External:        +0.000000
XC:             -78.952234
Entropy (-ST):   -0.000000
Local:           +1.734159
Free energy:    -96.850889
Extrapolated:   -96.850889

Showing only first 2 kpts
 Kpt  Band  Eigenvalues  Occupancy
  0    28      2.74886    1.00000
  0    29      2.75171    1.00000
  0    30      2.96402    1.00000
  0    31      2.96739    1.00000

  1    28      2.89479    1.00000
  1    29      2.90234    1.00000
  1    30      2.93972    1.00000
  1    31      2.94234    1.00000

Fermi level: 9.02526

Gap: 0.827 eV
Transition (v -> c):
  (s=0, k=63, n=59, [0.12, 0.12, 0.08]) -> (s=0, k=63, n=60, [0.12, 0.12, 0.08])
Timing:                              incl.     excl.
Hamiltonian:                         0.373     0.003   0.0% |
 Atomic:                             0.157     0.157   0.0% |
  XC Correction:                     0.000     0.000   0.0% |
 Calculate atomic Hamiltonians:      0.028     0.028   0.0% |
 Communicate:                        0.000     0.000   0.0% |
 Initialize Hamiltonian:             0.000     0.000   0.0% |
 Poisson:                            0.001     0.001   0.0% |
 XC 3D grid:                         0.184     0.184   0.0% |
LCAO initialization:                26.238     0.142   0.0% |
 LCAO eigensolver:                  11.588     0.000   0.0% |
  DenseAtomicCorrection:             0.004     0.004   0.0% |
  Distribute overlap matrix:         0.000     0.000   0.0% |
  Orbital Layouts:                   0.009     0.009   0.0% |
  Potential matrix:                 11.547    11.547   1.3% ||
  Sum over cells:                    0.028     0.028   0.0% |
 LCAO to grid:                      14.024    14.024   1.5% ||
 Set positions (LCAO WFS):           0.485     0.113   0.0% |
  Basic WFS set positions:           0.000     0.000   0.0% |
  Basis functions set positions:     0.000     0.000   0.0% |
  P tci:                             0.129     0.129   0.0% |
  ST tci:                            0.155     0.155   0.0% |
  mktci:                             0.087     0.087   0.0% |
PWDescriptor:                        0.007     0.007   0.0% |
SCF-cycle:                         895.367   243.094  26.3% |----------|
 Davidson:                         476.425    35.547   3.9% |-|
  Apply H:                          94.610    94.610  10.3% |---|
  Subspace diag:                   109.750     0.054   0.0% |
   calc_h_matrix:                  102.087     4.959   0.5% |
    Apply H:                        97.128    97.128  10.5% |---|
   diagonalize:                      0.976     0.976   0.1% |
   rotate_psi:                       6.633     6.633   0.7% |
  calc. matrices:                  217.251    28.207   3.1% ||
   Apply H:                        189.044   189.044  20.5% |-------|
  diagonalize:                       7.652     7.652   0.8% |
  rotate_psi:                       11.615    11.615   1.3% ||
 Density:                          117.699     0.005   0.0% |
  Atomic density matrices:           4.743     4.743   0.5% |
  Mix:                              12.443    12.443   1.3% ||
  Multipole moments:                 0.054     0.054   0.0% |
  Pseudo density:                  100.454   100.446  10.9% |---|
   Symmetrize density:               0.007     0.007   0.0% |
 Hamiltonian:                       58.079     0.538   0.1% |
  Atomic:                           14.558    14.557   1.6% ||
   XC Correction:                    0.001     0.001   0.0% |
  Calculate atomic Hamiltonians:     5.421     5.421   0.6% |
  Communicate:                       0.031     0.031   0.0% |
  Poisson:                           0.171     0.171   0.0% |
  XC 3D grid:                       37.361    37.361   4.0% |-|
 Orthonormalize:                     0.069     0.001   0.0% |
  calc_s_matrix:                     0.016     0.016   0.0% |
  inverse-cholesky:                  0.001     0.001   0.0% |
  projections:                       0.031     0.031   0.0% |
  rotate_psi_s:                      0.020     0.020   0.0% |
Set symmetry:                        0.000     0.000   0.0% |
Other:                               0.728     0.728   0.1% |
Total:                                       922.714 100.0%