User:   madkru@c119.nifl.fysik.dtu.dk
Date:   Wed Jul  6 10:32:33 2022
Arch:   x86_64
Pid:    227957
Python: 3.8.6
gpaw:   /home/niflheim/madkru/new_venv/gpaw/gpaw (1f0dfc9eae)
_gpaw:  /home/niflheim/madkru/new_venv/gpaw/build/lib.linux-x86_64-skylake-3.8/
        _gpaw.cpython-38-x86_64-linux-gnu.so (c1e45bfab3)
ase:    /home/niflheim/madkru/new_venv/ase/ase (version 3.23.0b1-ca38c75a67)
numpy:  /home/modules/software/SciPy-bundle/2020.11-foss-2020b/lib/python3.8/site-packages/numpy (version 1.19.4)
scipy:  /home/modules/software/SciPy-bundle/2020.11-foss-2020b/lib/python3.8/site-packages/scipy (version 1.5.4)
units:  Angstrom and eV
cores: 40
OpenMP: False
OMP_NUM_THREADS: 1

Input parameters:
  convergence: {density: 1e-09}
  experimental: {magmoms: [[0. 0. 0.]
 [0. 0. 0.]
 [0. 0. 0.]
 ...
 [0. 0. 5.]
 [0. 0. 0.]
 [0. 0. 0.]],
                 soc: True}
  kpts: [4 4 6]
  maxiter: 5000
  mixer: {backend: pulay,
          beta: 0.02,
          method: difference,
          nmaxold: 5,
          weight: 100}
  mode: {ecut: 600.0,
         gammacentered: False,
         name: pw}
  occupations: {name: fermi-dirac,
                width: 0.001}
  symmetry: off

System changes: positions, numbers, cell, pbc, initial_charges, initial_magmoms

Initialize ...

O-setup:
  name: Oxygen
  id: 9b9d51c344dea68c822856295a461509
  Z: 8.0
  valence: 6
  core: 2
  charge: 0.0
  file: /home/modules/software/GPAW-setups/0.9.20000/O.LDA.gz
  compensation charges: gauss, rc=0.21, lmax=2
  cutoffs: 1.17(filt), 0.83(core),
  valence states:
                energy  radius
    2s(2.00)   -23.752   0.688
    2p(4.00)    -9.195   0.598
    *s           3.459   0.688
    *p          18.016   0.598
    *d           0.000   0.619

  Using partial waves for O as LCAO basis

Cr-setup:
  name: Chromium
  id: 444e8044bc0f91048286c984738d87f5
  Z: 24.0
  valence: 6
  core: 18
  charge: 0.0
  file: /home/modules/software/GPAW-setups/0.9.20000/Cr.LDA.gz
  compensation charges: gauss, rc=0.35, lmax=2
  cutoffs: 2.14(filt), 3.04(core),
  valence states:
                energy  radius
    4s(1.00)    -4.191   1.164
    4p(0.00)    -1.079   1.217
    3d(5.00)    -3.128   1.111
    *s          23.021   1.164
    *p          26.132   1.217
    *d          24.083   1.111

  Using partial waves for Cr as LCAO basis

Reference energy: -126274.181857

Non-collinear calculation.
Magnetic moment: (0.000000, 0.000000, 0.000000)

Convergence criteria:
  Maximum total energy change: 0.0005 eV / electron
  Maximum integral of absolute density change: 1e-09 electrons
  Maximum integral of absolute eigenstate change: 4e-08 eV^2
  Maximum number of iterations: 5000

Symmetries present (total): 1

  ( 1  0  0)
  ( 0  1  0)
  ( 0  0  1)

96 k-points: 4 x 4 x 6 Monkhorst-Pack grid
96 k-points in the irreducible part of the Brillouin zone
       k-points in crystal coordinates                weights
   0:    -0.37500000   -0.37500000   -0.41666667          1/96
   1:    -0.37500000   -0.37500000   -0.25000000          1/96
   2:    -0.37500000   -0.37500000   -0.08333333          1/96
   3:    -0.37500000   -0.37500000    0.08333333          1/96
   4:    -0.37500000   -0.37500000    0.25000000          1/96
   5:    -0.37500000   -0.37500000    0.41666667          1/96
   6:    -0.37500000   -0.12500000   -0.41666667          1/96
   7:    -0.37500000   -0.12500000   -0.25000000          1/96
   8:    -0.37500000   -0.12500000   -0.08333333          1/96
   9:    -0.37500000   -0.12500000    0.08333333          1/96
          ...
  95:     0.37500000    0.37500000    0.41666667          1/96

Wave functions: Plane wave expansion
  Cutoff energy: 600.000 eV
  Number of coefficients (min, max): 2899, 2926
  Pulay-stress correction: 0.000000 eV/Ang^3 (de/decut=0.000000)
  Using FFTW library
  ScaLapack parameters: grid=1x1, blocksize=None
  Wavefunction extrapolation:
    Improved wavefunction reuse through dual PAW basis

Occupation numbers: Fermi-Dirac: width=0.0010 eV

Eigensolver
   Davidson(niter=2)

Densities:
  Coarse grid: 32*32*32 grid
  Fine grid: 64*64*64 grid
  Total Charge: 0.000000

Density mixing:
  Method: difference
  Backend: pulay
  Linear mixing parameter: 0.02
  Mixing with 5 old densities
  Damping of long wave oscillations: 100

Hamiltonian:
  XC and Coulomb potentials evaluated on a 64*64*64 grid
  Using the LDA Exchange-Correlation functional
  External potential:
    <gpaw.external.NoExternalPotential object at 0x2ad49444a430>

Total number of cores used: 40
Parallelization over k-points: 40

Number of atoms: 10
Number of atomic orbitals: 60
Number of bands in calculation: 80
Number of valence electrons: 60
Bands to converge: occupied

... initialized

Initializing position-dependent things.

Density initialized from atomic densities
Creating initial wave functions:
  60 bands from LCAO basis set
  20 bands from random numbers

            Cr

            Cr
           O
         O      O

        O      O
             O
            Cr

            Cr

Positions:
   0 O     -0.760597   -1.388774    8.037087    ( 0.0000,  0.0000,  0.0000)
   1 O     -1.582995   -0.038030    5.742066    ( 0.0000,  0.0000,  0.0000)
   2 O     -0.825686    1.351886    8.037286    ( 0.0000,  0.0000,  0.0000)
   3 O      0.821975   -1.352627    5.741040    ( 0.0000,  0.0000,  0.0000)
   4 Cr     0.001310   -0.000549    2.195940    ( 0.0000,  0.0000,  5.0000)
   5 Cr     0.001308    0.000186    4.693224    ( 0.0000,  0.0000, -5.0000)
   6 Cr     0.001318   -0.001082   11.582392    ( 0.0000,  0.0000, -5.0000)
   7 Cr     0.001323   -0.000043    9.085106    ( 0.0000,  0.0000,  5.0000)
   8 O      1.582221    0.035587    8.037705    ( 0.0000,  0.0000,  0.0000)
   9 O      0.759823    1.389725    5.739807    ( 0.0000,  0.0000,  0.0000)

Unit cell:
           periodic     x           y           z      points  spacing
  1. axis:    yes    2.342815    1.352071    4.592704    32     0.1216
  2. axis:    yes   -2.342815    1.352071    4.592704    32     0.1216
  3. axis:    yes    0.000000   -2.704886    4.592923    32     0.1216

  Lengths:   5.330085   5.330085   5.330230
  Angles:   52.139511  52.139510  52.149782

Effective grid spacing dv^(1/3) = 0.1386

                     log10-error:    total        iterations:
           time      wfs    density  energy       poisson
iter:   1  10:33:14                 -99.631553            +0.0,+0.0,+0.0
iter:   2  10:33:19  -0.65  -0.99  -100.952085            +0.0,+0.0,+0.0
iter:   3  10:33:24  -0.08  -1.00   -97.148118            +0.0,-0.0,+0.0
iter:   4  10:33:29  -0.60  -1.35   -97.337624            +0.0,-0.0,+0.0
iter:   5  10:33:34  -1.12  -1.37   -97.423794            +0.0,+0.0,+0.0
iter:   6  10:33:39  -0.38  -1.38   -98.571494            +0.0,+0.0,+0.0
iter:   7  10:33:44  -1.08  -1.54   -97.143438            +0.0,+0.0,+0.0
iter:   8  10:33:49  -2.27  -1.84   -97.265209            +0.0,-0.0,+0.0
iter:   9  10:33:54  -1.38  -1.79   -97.147671            +0.0,-0.0,+0.0
iter:  10  10:33:59  -0.60  -1.83   -97.356718            +0.0,-0.0,+0.0
iter:  11  10:34:04  -1.56  -1.72   -96.852776            +0.0,-0.0,+0.0
iter:  12  10:34:09  -2.69  -2.33   -96.855085            +0.0,-0.0,+0.0
iter:  13  10:34:14  -2.06  -2.42   -96.857752            +0.0,-0.0,+0.0
iter:  14  10:34:19  -2.73  -2.52   -96.858971            +0.0,-0.0,+0.0
iter:  15  10:34:24  -3.12  -2.51   -96.860545            +0.0,-0.0,+0.0
iter:  16  10:34:29  -2.61  -2.43   -96.880853            +0.0,-0.0,+0.0
iter:  17  10:34:34  -3.08  -2.22   -96.875159            +0.0,-0.0,+0.0
iter:  18  10:34:40  -3.11  -2.36   -96.882871            +0.0,-0.0,+0.0
iter:  19  10:34:45  -2.56  -2.25   -96.865660            +0.0,-0.0,+0.0
iter:  20  10:34:50  -3.08  -2.50   -96.857135            +0.0,-0.0,+0.0
iter:  21  10:34:55  -3.46  -2.63   -96.855352            +0.0,-0.0,+0.0
iter:  22  10:35:00  -3.30  -2.71   -96.851787            +0.0,+0.0,+0.0
iter:  23  10:35:05  -3.68  -2.87   -96.851655            +0.0,+0.0,+0.0
iter:  24  10:35:10  -3.71  -2.94   -96.852623            +0.0,+0.0,+0.0
iter:  25  10:35:15  -4.29  -2.87   -96.852048            +0.0,+0.0,+0.0
iter:  26  10:35:20  -4.73  -2.93   -96.852022            +0.0,+0.0,+0.0
iter:  27  10:35:25  -4.91  -2.93   -96.852048            +0.0,+0.0,+0.0
iter:  28  10:35:30  -4.15  -2.92   -96.852460            +0.0,+0.0,+0.0
iter:  29  10:35:35  -4.65  -2.96   -96.852677            +0.0,+0.0,+0.0
iter:  30  10:35:40  -5.10  -2.98   -96.852457            +0.0,+0.0,+0.0
iter:  31  10:35:45  -5.37  -3.00   -96.852392            +0.0,+0.0,+0.0
iter:  32  10:35:50  -4.62  -3.01   -96.851931            +0.0,+0.0,+0.0
iter:  33  10:35:55  -4.19  -3.20   -96.851712            +0.0,+0.0,+0.0
iter:  34  10:36:00  -4.80  -3.44   -96.851769            +0.0,+0.0,+0.0
iter:  35  10:36:05  -5.09  -3.40   -96.851742            +0.0,+0.0,+0.0
iter:  36  10:36:10  -5.42  -3.43   -96.851748            +0.0,+0.0,+0.0
iter:  37  10:36:15  -5.25  -3.43   -96.851765            +0.0,+0.0,+0.0
iter:  38  10:36:20  -5.66  -3.42   -96.851765            +0.0,+0.0,+0.0
iter:  39  10:36:25  -5.19  -3.42   -96.851777            +0.0,+0.0,+0.0
iter:  40  10:36:30  -5.59  -3.43   -96.851776            +0.0,+0.0,+0.0
iter:  41  10:36:35  -5.48  -3.43   -96.851771            +0.0,+0.0,+0.0
iter:  42  10:36:40  -5.23  -3.43   -96.851772            +0.0,+0.0,+0.0
iter:  43  10:36:45  -6.02  -3.42   -96.851764            +0.0,+0.0,+0.0
iter:  44  10:36:50  -6.03  -3.42   -96.851754            +0.0,+0.0,+0.0
iter:  45  10:36:55  -4.60  -3.43   -96.851900            +0.0,+0.0,+0.0
iter:  46  10:37:00  -4.58  -3.44   -96.851692            +0.0,+0.0,+0.0
iter:  47  10:37:05  -5.42  -4.09   -96.851696            +0.0,+0.0,+0.0
iter:  48  10:37:10  -5.79  -4.15   -96.851699            +0.0,+0.0,+0.0
iter:  49  10:37:15  -6.11  -4.13   -96.851696            +0.0,+0.0,+0.0
iter:  50  10:37:20  -5.97  -4.25   -96.851700            +0.0,+0.0,+0.0
iter:  51  10:37:25  -6.25  -4.17   -96.851697            +0.0,+0.0,+0.0
iter:  52  10:37:30  -6.67  -4.31   -96.851697            +0.0,+0.0,+0.0
iter:  53  10:37:35  -6.56  -4.32   -96.851697            +0.0,+0.0,+0.0
iter:  54  10:37:40  -6.58  -4.39   -96.851696            +0.0,+0.0,+0.0
iter:  55  10:37:45  -7.16  -4.49   -96.851696            +0.0,+0.0,+0.0
iter:  56  10:37:50  -7.22  -4.48   -96.851697            +0.0,+0.0,+0.0
iter:  57  10:37:55  -7.23  -4.53   -96.851696            +0.0,+0.0,+0.0
iter:  58  10:38:00  -7.55  -4.55   -96.851696            +0.0,+0.0,+0.0
iter:  59  10:38:05  -7.45  -4.53   -96.851696            +0.0,+0.0,+0.0
iter:  60  10:38:10  -7.18  -4.48   -96.851696            +0.0,+0.0,+0.0
[...]
iter: 145  10:45:16 -11.70  -8.49   -96.851696            +0.0,+0.0,+0.0
iter: 146  10:45:21 -12.33  -8.45   -96.851696            +0.0,+0.0,+0.0
iter: 147  10:45:26 -12.25  -8.44   -96.851696            +0.0,+0.0,+0.0
iter: 148  10:45:31 -12.88  -8.43   -96.851696            +0.0,+0.0,+0.0
iter: 149  10:45:35 -12.35  -8.47   -96.851696            +0.0,+0.0,+0.0
iter: 150  10:45:41 -11.62  -8.47   -96.851696            +0.0,+0.0,+0.0
iter: 151  10:45:46 -11.41  -8.48   -96.851696            +0.0,+0.0,+0.0
iter: 152  10:45:51 -11.18  -8.49   -96.851696            +0.0,+0.0,+0.0
iter: 153  10:45:56 -11.56  -8.41   -96.851696            +0.0,+0.0,+0.0
iter: 154  10:46:01 -12.20  -8.73   -96.851696            +0.0,+0.0,+0.0
iter: 155  10:46:06 -11.94  -8.76   -96.851696            +0.0,+0.0,+0.0
iter: 156  10:46:11 -11.17  -8.81   -96.851696            +0.0,+0.0,+0.0
iter: 157  10:46:16 -11.72  -8.92   -96.851696            +0.0,+0.0,+0.0
iter: 158  10:46:21 -12.14  -8.99   -96.851696            +0.0,+0.0,+0.0
iter: 159  10:46:26 -12.46  -9.04   -96.851696            +0.0,+0.0,+0.0

Converged after 159 iterations.

Dipole moment: (-0.000162, 0.015958, -0.000115) |e|*Ang

Total magnetic moment: (0.000190, 0.000000, 0.000093)
Local magnetic moments:
   0 O  (-0.000018,  0.000034, -0.000502)
   1 O  ( 0.000019,  0.000033,  0.000178)
   2 O  ( 0.000034,  0.000001, -0.000001)
   3 O  (-0.000034,  0.000001,  0.000001)
   4 Cr (-0.000036, -0.000207,  2.208815)
   5 Cr (-0.000041,  0.000203, -2.208772)
   6 Cr ( 0.000125,  0.000057, -2.208773)
   7 Cr ( 0.000131, -0.000053,  2.208816)
   8 O  (-0.000017, -0.000034,  0.000502)
   9 O  ( 0.000018, -0.000034, -0.000178)

Energy contributions relative to reference atoms: (reference = -126274.181857)

Kinetic:        +34.279968
Potential:      -53.915031
External:        +0.000000
XC:             -78.950737
Entropy (-ST):   -0.000000
Local:           +1.734104
Free energy:    -96.851696
Extrapolated:   -96.851696

Showing only first 2 kpts
 Kpt  Band  Eigenvalues  Occupancy
  0    28      2.75025    1.00000
  0    29      2.75036    1.00000
  0    30      2.96541    1.00000
  0    31      2.96572    1.00000

  1    28      2.89808    1.00000
  1    29      2.89890    1.00000
  1    30      2.94087    1.00000
  1    31      2.94130    1.00000

Fermi level: 9.03489

Gap: 0.831 eV
Transition (v -> c):
  (s=0, k=32, n=59, [-0.12, -0.12, -0.08]) -> (s=0, k=32, n=60, [-0.12, -0.12, -0.08])
Timing:                              incl.     excl.
Hamiltonian:                         0.336     0.002   0.0% |
 Atomic:                             0.114     0.114   0.0% |
  XC Correction:                     0.000     0.000   0.0% |
 Calculate atomic Hamiltonians:      0.023     0.023   0.0% |
 Communicate:                        0.000     0.000   0.0% |
 Initialize Hamiltonian:             0.000     0.000   0.0% |
 Poisson:                            0.001     0.001   0.0% |
 XC 3D grid:                         0.196     0.196   0.0% |
LCAO initialization:                26.279     0.142   0.0% |
 LCAO eigensolver:                  11.629     0.000   0.0% |
  DenseAtomicCorrection:             0.004     0.004   0.0% |
  Distribute overlap matrix:         0.000     0.000   0.0% |
  Orbital Layouts:                   0.009     0.009   0.0% |
  Potential matrix:                 11.588    11.588   1.4% ||
  Sum over cells:                    0.028     0.028   0.0% |
 LCAO to grid:                      14.027    14.027   1.7% ||
 Set positions (LCAO WFS):           0.482     0.112   0.0% |
  Basic WFS set positions:           0.000     0.000   0.0% |
  Basis functions set positions:     0.000     0.000   0.0% |
  P tci:                             0.129     0.129   0.0% |
  ST tci:                            0.153     0.153   0.0% |
  mktci:                             0.087     0.087   0.0% |
PWDescriptor:                        0.007     0.007   0.0% |
SCF-cycle:                         805.555   215.470  25.9% |---------|
 Davidson:                         432.296    30.301   3.6% ||
  Apply H:                          89.761    89.761  10.8% |---|
  Subspace diag:                   100.030     0.055   0.0% |
   calc_h_matrix:                   93.065     4.103   0.5% |
    Apply H:                        88.962    88.962  10.7% |---|
   diagonalize:                      0.910     0.910   0.1% |
   rotate_psi:                       6.000     6.000   0.7% |
  calc. matrices:                  194.757    22.586   2.7% ||
   Apply H:                        172.170   172.170  20.7% |-------|
  diagonalize:                       6.647     6.647   0.8% |
  rotate_psi:                       10.800    10.800   1.3% ||
 Density:                          105.970     0.004   0.0% |
  Atomic density matrices:           4.664     4.664   0.6% |
  Mix:                              11.271    11.271   1.4% ||
  Multipole moments:                 0.049     0.049   0.0% |
  Pseudo density:                   89.982    89.976  10.8% |---|
   Symmetrize density:               0.006     0.006   0.0% |
 Hamiltonian:                       51.750     0.327   0.0% |
  Atomic:                           13.999    13.998   1.7% ||
   XC Correction:                    0.001     0.001   0.0% |
  Calculate atomic Hamiltonians:     4.175     4.175   0.5% |
  Communicate:                       0.024     0.024   0.0% |
  Poisson:                           0.168     0.168   0.0% |
  XC 3D grid:                       33.058    33.058   4.0% |-|
 Orthonormalize:                     0.070     0.000   0.0% |
  calc_s_matrix:                     0.015     0.015   0.0% |
  inverse-cholesky:                  0.001     0.001   0.0% |
  projections:                       0.033     0.033   0.0% |
  rotate_psi_s:                      0.019     0.019   0.0% |
Set symmetry:                        0.000     0.000   0.0% |
Other:                               0.768     0.768   0.1% |
Total:                                       832.945 100.0%