User:   madkru@c119.nifl.fysik.dtu.dk
Date:   Wed Jul  6 09:08:18 2022
Arch:   x86_64
Pid:    227957
Python: 3.8.6
gpaw:   /home/niflheim/madkru/new_venv/gpaw/gpaw (1f0dfc9eae)
_gpaw:  /home/niflheim/madkru/new_venv/gpaw/build/lib.linux-x86_64-skylake-3.8/
        _gpaw.cpython-38-x86_64-linux-gnu.so (c1e45bfab3)
ase:    /home/niflheim/madkru/new_venv/ase/ase (version 3.23.0b1-ca38c75a67)
numpy:  /home/modules/software/SciPy-bundle/2020.11-foss-2020b/lib/python3.8/site-packages/numpy (version 1.19.4)
scipy:  /home/modules/software/SciPy-bundle/2020.11-foss-2020b/lib/python3.8/site-packages/scipy (version 1.5.4)
units:  Angstrom and eV
cores: 40
OpenMP: False
OMP_NUM_THREADS: 1

Input parameters:
  convergence: {density: 1e-09}
  experimental: {magmoms: [[0. 0. 0.]
 [0. 0. 0.]
 [0. 0. 0.]
 ...
 [0. 0. 5.]
 [0. 0. 0.]
 [0. 0. 0.]],
                 soc: True}
  kpts: [4 4 6]
  maxiter: 5000
  mixer: {backend: pulay,
          beta: 0.02,
          method: difference,
          nmaxold: 5,
          weight: 100}
  mode: {ecut: 600.0,
         gammacentered: False,
         name: pw}
  occupations: {name: fermi-dirac,
                width: 0.001}
  symmetry: off

System changes: positions, numbers, cell, pbc, initial_charges, initial_magmoms

Initialize ...

O-setup:
  name: Oxygen
  id: 9b9d51c344dea68c822856295a461509
  Z: 8.0
  valence: 6
  core: 2
  charge: 0.0
  file: /home/modules/software/GPAW-setups/0.9.20000/O.LDA.gz
  compensation charges: gauss, rc=0.21, lmax=2
  cutoffs: 1.17(filt), 0.83(core),
  valence states:
                energy  radius
    2s(2.00)   -23.752   0.688
    2p(4.00)    -9.195   0.598
    *s           3.459   0.688
    *p          18.016   0.598
    *d           0.000   0.619

  Using partial waves for O as LCAO basis

Cr-setup:
  name: Chromium
  id: 444e8044bc0f91048286c984738d87f5
  Z: 24.0
  valence: 6
  core: 18
  charge: 0.0
  file: /home/modules/software/GPAW-setups/0.9.20000/Cr.LDA.gz
  compensation charges: gauss, rc=0.35, lmax=2
  cutoffs: 2.14(filt), 3.04(core),
  valence states:
                energy  radius
    4s(1.00)    -4.191   1.164
    4p(0.00)    -1.079   1.217
    3d(5.00)    -3.128   1.111
    *s          23.021   1.164
    *p          26.132   1.217
    *d          24.083   1.111

  Using partial waves for Cr as LCAO basis

Reference energy: -126274.181857

Non-collinear calculation.
Magnetic moment: (0.000000, 0.000000, 0.000000)

Convergence criteria:
  Maximum total energy change: 0.0005 eV / electron
  Maximum integral of absolute density change: 1e-09 electrons
  Maximum integral of absolute eigenstate change: 4e-08 eV^2
  Maximum number of iterations: 5000

Symmetries present (total): 1

  ( 1  0  0)
  ( 0  1  0)
  ( 0  0  1)

96 k-points: 4 x 4 x 6 Monkhorst-Pack grid
96 k-points in the irreducible part of the Brillouin zone
       k-points in crystal coordinates                weights
   0:    -0.37500000   -0.37500000   -0.41666667          1/96
   1:    -0.37500000   -0.37500000   -0.25000000          1/96
   2:    -0.37500000   -0.37500000   -0.08333333          1/96
   3:    -0.37500000   -0.37500000    0.08333333          1/96
   4:    -0.37500000   -0.37500000    0.25000000          1/96
   5:    -0.37500000   -0.37500000    0.41666667          1/96
   6:    -0.37500000   -0.12500000   -0.41666667          1/96
   7:    -0.37500000   -0.12500000   -0.25000000          1/96
   8:    -0.37500000   -0.12500000   -0.08333333          1/96
   9:    -0.37500000   -0.12500000    0.08333333          1/96
          ...
  95:     0.37500000    0.37500000    0.41666667          1/96

Wave functions: Plane wave expansion
  Cutoff energy: 600.000 eV
  Number of coefficients (min, max): 2899, 2926
  Pulay-stress correction: 0.000000 eV/Ang^3 (de/decut=0.000000)
  Using FFTW library
  ScaLapack parameters: grid=1x1, blocksize=None
  Wavefunction extrapolation:
    Improved wavefunction reuse through dual PAW basis

Occupation numbers: Fermi-Dirac: width=0.0010 eV

Eigensolver
   Davidson(niter=2)

Densities:
  Coarse grid: 32*32*32 grid
  Fine grid: 64*64*64 grid
  Total Charge: 0.000000

Density mixing:
  Method: difference
  Backend: pulay
  Linear mixing parameter: 0.02
  Mixing with 5 old densities
  Damping of long wave oscillations: 100

Hamiltonian:
  XC and Coulomb potentials evaluated on a 64*64*64 grid
  Using the LDA Exchange-Correlation functional
  External potential:
    <gpaw.external.NoExternalPotential object at 0x2ad491343eb0>

Total number of cores used: 40
Parallelization over k-points: 40

Number of atoms: 10
Number of atomic orbitals: 60
Number of bands in calculation: 80
Number of valence electrons: 60
Bands to converge: occupied

... initialized

Initializing position-dependent things.

Density initialized from atomic densities
Creating initial wave functions:
  60 bands from LCAO basis set
  20 bands from random numbers

            Cr

            Cr
           O
         O      O

        O      O
             O
            Cr

            Cr

Positions:
   0 O     -0.759433   -1.391318    8.039243    ( 0.0000,  0.0000,  0.0000)
   1 O     -1.581830   -0.035476    5.739903    ( 0.0000,  0.0000,  0.0000)
   2 O     -0.820118    1.351886    8.037287    ( 0.0000,  0.0000,  0.0000)
   3 O      0.827540   -1.352633    5.741053    ( 0.0000,  0.0000,  0.0000)
   4 Cr    -0.002633    0.000763    2.195939    ( 0.0000,  0.0000,  5.0000)
   5 Cr    -0.002628   -0.001154    4.693229    ( 0.0000,  0.0000, -5.0000)
   6 Cr    -0.002624    0.000269   11.582390    ( 0.0000,  0.0000, -5.0000)
   7 Cr    -0.002633   -0.001364    9.085103    ( 0.0000,  0.0000,  5.0000)
   8 O      1.583378    0.038131    8.035546    ( 0.0000,  0.0000,  0.0000)
   9 O      0.760980    1.387187    5.741959    ( 0.0000,  0.0000,  0.0000)

Unit cell:
           periodic     x           y           z      points  spacing
  1. axis:    yes    2.342815    1.352071    4.592704    32     0.1216
  2. axis:    yes   -2.342815    1.352071    4.592704    32     0.1216
  3. axis:    yes    0.000000   -2.704886    4.592923    32     0.1216

  Lengths:   5.330085   5.330085   5.330230
  Angles:   52.139511  52.139510  52.149782

Effective grid spacing dv^(1/3) = 0.1386

                     log10-error:    total        iterations:
           time      wfs    density  energy       poisson
iter:   1  09:09:00                 -99.630758            +0.0,+0.0,-0.0
iter:   2  09:09:05  -0.65  -0.99  -100.951332            -0.0,+0.0,+0.0
iter:   3  09:09:10  -0.08  -1.00   -97.147347            -0.0,-0.0,+0.0
iter:   4  09:09:15  -0.60  -1.35   -97.336807            -0.0,-0.0,+0.0
iter:   5  09:09:20  -1.12  -1.37   -97.422695            -0.0,-0.0,+0.0
iter:   6  09:09:25  -0.38  -1.38   -98.569904            -0.0,-0.0,+0.0
iter:   7  09:09:30  -1.08  -1.54   -97.142988            -0.0,-0.0,+0.0
iter:   8  09:09:35  -2.27  -1.84   -97.264587            -0.0,-0.0,+0.0
iter:   9  09:09:40  -1.38  -1.79   -97.146652            -0.0,-0.0,+0.0
iter:  10  09:09:45  -0.60  -1.83   -97.347997            -0.0,-0.0,+0.0
iter:  11  09:09:50  -1.57  -1.72   -96.852059            -0.0,-0.0,+0.0
iter:  12  09:09:55  -2.69  -2.33   -96.854307            -0.0,-0.0,+0.0
iter:  13  09:10:00  -2.06  -2.41   -96.857272            -0.0,-0.0,+0.0
iter:  14  09:10:06  -2.76  -2.51   -96.857656            -0.0,-0.0,+0.0
iter:  15  09:10:11  -3.12  -2.53   -96.859538            -0.0,-0.0,+0.0
iter:  16  09:10:16  -2.77  -2.44   -96.873129            -0.0,-0.0,+0.0
iter:  17  09:10:21  -3.16  -2.29   -96.871125            -0.0,-0.0,+0.0
iter:  18  09:10:26  -3.32  -2.40   -96.873857            -0.0,-0.0,+0.0
iter:  19  09:10:31  -2.71  -2.31   -96.875498            -0.0,-0.0,+0.0
iter:  20  09:10:36  -3.69  -2.39   -96.876496            -0.0,-0.0,+0.0
iter:  21  09:10:41  -3.36  -2.39   -96.863663            -0.0,-0.0,+0.0
iter:  22  09:10:46  -3.15  -2.48   -96.857909            -0.0,-0.0,+0.0
iter:  23  09:10:51  -3.61  -2.56   -96.855960            -0.0,-0.0,+0.0
iter:  24  09:10:56  -3.69  -2.61   -96.853166            -0.0,-0.0,+0.0
iter:  25  09:11:01  -3.35  -2.68   -96.852416            -0.0,-0.0,+0.0
iter:  26  09:11:06  -3.54  -2.69   -96.850929            -0.0,-0.0,+0.0
iter:  27  09:11:11  -3.33  -2.75   -96.852749            -0.0,-0.0,+0.0
iter:  28  09:11:16  -3.13  -2.66   -96.852626            -0.0,-0.0,+0.0
iter:  29  09:11:22  -3.83  -2.93   -96.851343            -0.0,+0.0,+0.0
iter:  30  09:11:27  -3.73  -3.05   -96.851327            -0.0,+0.0,+0.0
iter:  31  09:11:32  -4.04  -3.17   -96.851365            -0.0,+0.0,+0.0
iter:  32  09:11:37  -4.42  -3.17   -96.851073            -0.0,+0.0,+0.0
iter:  33  09:11:42  -3.98  -3.34   -96.851313            -0.0,+0.0,+0.0
iter:  34  09:11:47  -4.89  -3.25   -96.851121            -0.0,+0.0,+0.0
iter:  35  09:11:52  -5.17  -3.33   -96.851140            -0.0,+0.0,+0.0
iter:  36  09:11:57  -5.09  -3.35   -96.851048            -0.0,+0.0,+0.0
iter:  37  09:12:02  -5.36  -3.39   -96.851076            -0.0,+0.0,+0.0
iter:  38  09:12:07  -5.75  -3.34   -96.851048            -0.0,+0.0,+0.0
iter:  39  09:12:12  -5.52  -3.36   -96.850990            -0.0,+0.0,+0.0
iter:  40  09:12:17  -4.63  -3.37   -96.850856            -0.0,+0.0,+0.0
iter:  41  09:12:22  -4.97  -3.66   -96.850849            -0.0,+0.0,+0.0
iter:  42  09:12:28  -4.62  -3.66   -96.850976            -0.0,+0.0,+0.0
iter:  43  09:12:33  -5.01  -3.46   -96.850853            -0.0,+0.0,+0.0
iter:  44  09:12:38  -5.45  -3.70   -96.850855            -0.0,+0.0,+0.0
iter:  45  09:12:43  -4.94  -3.70   -96.850920            -0.0,+0.0,+0.0
iter:  46  09:12:48  -5.36  -3.61   -96.850867            -0.0,+0.0,+0.0
iter:  47  09:12:53  -5.22  -3.85   -96.850919            -0.0,+0.0,+0.0
iter:  48  09:12:58  -5.61  -3.62   -96.850883            -0.0,+0.0,+0.0
iter:  49  09:13:03  -5.40  -3.78   -96.850859            -0.0,+0.0,+0.0
iter:  50  09:13:08  -5.57  -3.81   -96.850857            -0.0,+0.0,+0.0
iter:  51  09:13:13  -5.66  -3.81   -96.850854            -0.0,+0.0,+0.0
iter:  52  09:13:18  -6.01  -3.86   -96.850854            -0.0,+0.0,+0.0
iter:  53  09:13:23  -6.06  -3.88   -96.850864            -0.0,+0.0,+0.0
iter:  54  09:13:28  -6.44  -3.96   -96.850857            -0.0,+0.0,+0.0
iter:  55  09:13:33  -6.54  -4.01   -96.850860            -0.0,+0.0,+0.0
iter:  56  09:13:38  -6.69  -3.98   -96.850858            -0.0,+0.0,+0.0
iter:  57  09:13:43  -6.46  -3.98   -96.850859            -0.0,+0.0,+0.0
iter:  58  09:13:48  -6.51  -4.03   -96.850858            -0.0,+0.0,+0.0
iter:  59  09:13:53  -5.79  -4.04   -96.850855            -0.0,+0.0,+0.0
iter:  60  09:13:58  -6.37  -4.11   -96.850855            -0.0,+0.0,+0.0
[...]
iter: 142  09:20:51 -11.83  -8.80   -96.850854            -0.0,+0.0,+0.0
iter: 143  09:20:56 -12.17  -8.81   -96.850854            -0.0,+0.0,+0.0
iter: 144  09:21:01 -12.61  -8.80   -96.850854            -0.0,+0.0,+0.0
iter: 145  09:21:06 -12.21  -8.81   -96.850854            -0.0,+0.0,+0.0
iter: 146  09:21:11 -11.58  -8.79   -96.850854            -0.0,+0.0,+0.0
iter: 147  09:21:16 -11.97  -8.79   -96.850854            -0.0,+0.0,+0.0
iter: 148  09:21:21 -12.60  -8.76   -96.850854            -0.0,+0.0,+0.0
iter: 149  09:21:26 -12.18  -8.80   -96.850854            -0.0,+0.0,+0.0
iter: 150  09:21:31 -11.65  -8.81   -96.850854            -0.0,+0.0,+0.0
iter: 151  09:21:36 -11.76  -8.78   -96.850854            -0.0,+0.0,+0.0
iter: 152  09:21:41 -12.28  -8.80   -96.850854            -0.0,+0.0,+0.0
iter: 153  09:21:46 -11.70  -8.79   -96.850854            -0.0,+0.0,+0.0
iter: 154  09:21:52 -11.59  -8.87   -96.850854            -0.0,-0.0,+0.0
iter: 155  09:21:57 -11.67  -8.98   -96.850854            -0.0,-0.0,+0.0
iter: 156  09:22:02 -12.47  -9.08   -96.850854            -0.0,-0.0,+0.0

Converged after 156 iterations.

Dipole moment: (0.000320, -0.031911, 0.000218) |e|*Ang

Total magnetic moment: (-0.000380, -0.000000, 0.000093)
Local magnetic moments:
   0 O  (-0.000019,  0.000033,  0.000517)
   1 O  ( 0.000018,  0.000034, -0.000841)
   2 O  ( 0.000034,  0.000001,  0.000002)
   3 O  (-0.000033,  0.000001, -0.000001)
   4 Cr (-0.000178, -0.000016,  2.208768)
   5 Cr (-0.000171,  0.000024, -2.208727)
   6 Cr (-0.000001,  0.000316, -2.208724)
   7 Cr (-0.000009, -0.000324,  2.208767)
   8 O  (-0.000018, -0.000034, -0.000517)
   9 O  ( 0.000017, -0.000035,  0.000843)

Energy contributions relative to reference atoms: (reference = -126274.181857)

Kinetic:        +34.288908
Potential:      -53.922230
External:        +0.000000
XC:             -78.951677
Entropy (-ST):   -0.000000
Local:           +1.734146
Free energy:    -96.850854
Extrapolated:   -96.850854

Showing only first 2 kpts
 Kpt  Band  Eigenvalues  Occupancy
  0    28      2.75034    1.00000
  0    29      2.75050    1.00000
  0    30      2.96480    1.00000
  0    31      2.96546    1.00000

  1    28      2.89766    1.00000
  1    29      2.89927    1.00000
  1    30      2.94074    1.00000
  1    31      2.94160    1.00000

Fermi level: 9.07376

Gap: 0.831 eV
Transition (v -> c):
  (s=0, k=63, n=59, [0.12, 0.12, 0.08]) -> (s=0, k=63, n=60, [0.12, 0.12, 0.08])
Timing:                              incl.     excl.
Hamiltonian:                         0.357     0.003   0.0% |
 Atomic:                             0.143     0.143   0.0% |
  XC Correction:                     0.000     0.000   0.0% |
 Calculate atomic Hamiltonians:      0.023     0.023   0.0% |
 Communicate:                        0.000     0.000   0.0% |
 Initialize Hamiltonian:             0.000     0.000   0.0% |
 Poisson:                            0.001     0.001   0.0% |
 XC 3D grid:                         0.186     0.186   0.0% |
LCAO initialization:                27.993     0.141   0.0% |
 LCAO eigensolver:                  11.631     0.000   0.0% |
  DenseAtomicCorrection:             0.004     0.004   0.0% |
  Distribute overlap matrix:         0.000     0.000   0.0% |
  Orbital Layouts:                   0.010     0.010   0.0% |
  Potential matrix:                 11.588    11.588   1.4% ||
  Sum over cells:                    0.028     0.028   0.0% |
 LCAO to grid:                      15.738    15.738   1.9% ||
 Set positions (LCAO WFS):           0.484     0.113   0.0% |
  Basic WFS set positions:           0.000     0.000   0.0% |
  Basis functions set positions:     0.000     0.000   0.0% |
  P tci:                             0.130     0.130   0.0% |
  ST tci:                            0.155     0.155   0.0% |
  mktci:                             0.086     0.086   0.0% |
PWDescriptor:                        0.007     0.007   0.0% |
SCF-cycle:                         794.680   223.961  27.2% |----------|
 Davidson:                         415.975    30.015   3.6% ||
  Apply H:                          86.401    86.401  10.5% |---|
  Subspace diag:                    97.103     0.056   0.0% |
   calc_h_matrix:                   90.265     4.123   0.5% |
    Apply H:                        86.142    86.142  10.5% |---|
   diagonalize:                      0.885     0.885   0.1% |
   rotate_psi:                       5.897     5.897   0.7% |
  calc. matrices:                  185.441    22.587   2.7% ||
   Apply H:                        162.855   162.855  19.8% |-------|
  diagonalize:                       6.592     6.592   0.8% |
  rotate_psi:                       10.422    10.422   1.3% ||
 Density:                          103.879     0.004   0.0% |
  Atomic density matrices:           4.199     4.199   0.5% |
  Mix:                              11.185    11.185   1.4% ||
  Multipole moments:                 0.049     0.049   0.0% |
  Pseudo density:                   88.442    88.436  10.7% |---|
   Symmetrize density:               0.007     0.007   0.0% |
 Hamiltonian:                       50.799     0.334   0.0% |
  Atomic:                           13.111    13.110   1.6% ||
   XC Correction:                    0.001     0.001   0.0% |
  Calculate atomic Hamiltonians:     4.350     4.350   0.5% |
  Communicate:                       0.030     0.030   0.0% |
  Poisson:                           0.179     0.179   0.0% |
  XC 3D grid:                       32.795    32.795   4.0% |-|
 Orthonormalize:                     0.067     0.000   0.0% |
  calc_s_matrix:                     0.016     0.016   0.0% |
  inverse-cholesky:                  0.001     0.001   0.0% |
  projections:                       0.030     0.030   0.0% |
  rotate_psi_s:                      0.019     0.019   0.0% |
Set symmetry:                        0.000     0.000   0.0% |
Other:                               0.777     0.777   0.1% |
Total:                                       823.815 100.0%