User:   madkru@c130.nifl.fysik.dtu.dk
Date:   Wed Jul  6 14:07:46 2022
Arch:   x86_64
Pid:    254457
Python: 3.8.6
gpaw:   /home/niflheim/madkru/new_venv/gpaw/gpaw (1f0dfc9eae)
_gpaw:  /home/niflheim/madkru/new_venv/gpaw/build/lib.linux-x86_64-skylake-3.8/
        _gpaw.cpython-38-x86_64-linux-gnu.so (c1e45bfab3)
ase:    /home/niflheim/madkru/new_venv/ase/ase (version 3.23.0b1-ca38c75a67)
numpy:  /home/modules/software/SciPy-bundle/2020.11-foss-2020b/lib/python3.8/site-packages/numpy (version 1.19.4)
scipy:  /home/modules/software/SciPy-bundle/2020.11-foss-2020b/lib/python3.8/site-packages/scipy (version 1.5.4)
units:  Angstrom and eV
cores: 40
OpenMP: False
OMP_NUM_THREADS: 1

Input parameters:
  convergence: {density: 1e-09}
  experimental: {magmoms: [[0. 0. 0.]
 [0. 0. 0.]
 [0. 0. 0.]
 ...
 [0. 0. 5.]
 [0. 0. 0.]
 [0. 0. 0.]],
                 soc: True}
  kpts: [4 4 6]
  maxiter: 5000
  mixer: {backend: pulay,
          beta: 0.02,
          method: difference,
          nmaxold: 5,
          weight: 100}
  mode: {ecut: 600.0,
         gammacentered: False,
         name: pw}
  occupations: {name: fermi-dirac,
                width: 0.001}
  symmetry: off

System changes: positions, numbers, cell, pbc, initial_charges, initial_magmoms

Initialize ...

O-setup:
  name: Oxygen
  id: 9b9d51c344dea68c822856295a461509
  Z: 8.0
  valence: 6
  core: 2
  charge: 0.0
  file: /home/modules/software/GPAW-setups/0.9.20000/O.LDA.gz
  compensation charges: gauss, rc=0.21, lmax=2
  cutoffs: 1.17(filt), 0.83(core),
  valence states:
                energy  radius
    2s(2.00)   -23.752   0.688
    2p(4.00)    -9.195   0.598
    *s           3.459   0.688
    *p          18.016   0.598
    *d           0.000   0.619

  Using partial waves for O as LCAO basis

Cr-setup:
  name: Chromium
  id: 444e8044bc0f91048286c984738d87f5
  Z: 24.0
  valence: 6
  core: 18
  charge: 0.0
  file: /home/modules/software/GPAW-setups/0.9.20000/Cr.LDA.gz
  compensation charges: gauss, rc=0.35, lmax=2
  cutoffs: 2.14(filt), 3.04(core),
  valence states:
                energy  radius
    4s(1.00)    -4.191   1.164
    4p(0.00)    -1.079   1.217
    3d(5.00)    -3.128   1.111
    *s          23.021   1.164
    *p          26.132   1.217
    *d          24.083   1.111

  Using partial waves for Cr as LCAO basis

Reference energy: -126274.181857

Non-collinear calculation.
Magnetic moment: (0.000000, 0.000000, 0.000000)

Convergence criteria:
  Maximum total energy change: 0.0005 eV / electron
  Maximum integral of absolute density change: 1e-09 electrons
  Maximum integral of absolute eigenstate change: 4e-08 eV^2
  Maximum number of iterations: 5000

Symmetries present (total): 1

  ( 1  0  0)
  ( 0  1  0)
  ( 0  0  1)

96 k-points: 4 x 4 x 6 Monkhorst-Pack grid
96 k-points in the irreducible part of the Brillouin zone
       k-points in crystal coordinates                weights
   0:    -0.37500000   -0.37500000   -0.41666667          1/96
   1:    -0.37500000   -0.37500000   -0.25000000          1/96
   2:    -0.37500000   -0.37500000   -0.08333333          1/96
   3:    -0.37500000   -0.37500000    0.08333333          1/96
   4:    -0.37500000   -0.37500000    0.25000000          1/96
   5:    -0.37500000   -0.37500000    0.41666667          1/96
   6:    -0.37500000   -0.12500000   -0.41666667          1/96
   7:    -0.37500000   -0.12500000   -0.25000000          1/96
   8:    -0.37500000   -0.12500000   -0.08333333          1/96
   9:    -0.37500000   -0.12500000    0.08333333          1/96
          ...
  95:     0.37500000    0.37500000    0.41666667          1/96

Wave functions: Plane wave expansion
  Cutoff energy: 600.000 eV
  Number of coefficients (min, max): 2899, 2926
  Pulay-stress correction: 0.000000 eV/Ang^3 (de/decut=0.000000)
  Using FFTW library
  ScaLapack parameters: grid=1x1, blocksize=None
  Wavefunction extrapolation:
    Improved wavefunction reuse through dual PAW basis

Occupation numbers: Fermi-Dirac: width=0.0010 eV

Eigensolver
   Davidson(niter=2)

Densities:
  Coarse grid: 32*32*32 grid
  Fine grid: 64*64*64 grid
  Total Charge: 0.000000

Density mixing:
  Method: difference
  Backend: pulay
  Linear mixing parameter: 0.02
  Mixing with 5 old densities
  Damping of long wave oscillations: 100

Hamiltonian:
  XC and Coulomb potentials evaluated on a 64*64*64 grid
  Using the LDA Exchange-Correlation functional
  External potential:
    <gpaw.external.NoExternalPotential object at 0x2b05f5a2c310>

Total number of cores used: 40
Parallelization over k-points: 40

Number of atoms: 10
Number of atomic orbitals: 60
Number of bands in calculation: 80
Number of valence electrons: 60
Bands to converge: occupied

... initialized

Initializing position-dependent things.

Density initialized from atomic densities
Creating initial wave functions:
  60 bands from LCAO basis set
  20 bands from random numbers

            Cr

            Cr
           O
         O      O

        O      O
             O
            Cr

            Cr

Positions:
   0 O     -0.760161   -1.389596    8.039328    ( 0.0000,  0.0000,  0.0000)
   1 O     -1.582644   -0.037153    5.742876    ( 0.0000,  0.0000,  0.0000)
   2 O     -0.823828    1.351830    8.038809    ( 0.0000,  0.0000,  0.0000)
   3 O      0.823828   -1.352688    5.742571    ( 0.0000,  0.0000,  0.0000)
   4 Cr    -0.000006   -0.000110    2.193647    ( 0.0000,  0.0000,  5.0000)
   5 Cr    -0.000005   -0.000263    4.690932    ( 0.0000,  0.0000, -5.0000)
   6 Cr     0.000000   -0.000633   11.580099    ( 0.0000,  0.0000, -5.0000)
   7 Cr     0.000006   -0.000481    9.082815    ( 0.0000,  0.0000,  5.0000)
   8 O      1.582559    0.036463    8.038516    ( 0.0000,  0.0000,  0.0000)
   9 O      0.760251    1.388912    5.742051    ( 0.0000,  0.0000,  0.0000)

Unit cell:
           periodic     x           y           z      points  spacing
  1. axis:    yes    2.342815    1.352071    4.592704    32     0.1216
  2. axis:    yes   -2.342815    1.352071    4.592704    32     0.1216
  3. axis:    yes    0.000000   -2.704886    4.592923    32     0.1216

  Lengths:   5.330085   5.330085   5.330230
  Angles:   52.139511  52.139510  52.149782

Effective grid spacing dv^(1/3) = 0.1386

                     log10-error:    total        iterations:
           time      wfs    density  energy       poisson
iter:   1  14:08:28                 -99.631323            +0.0,+0.0,+0.0
iter:   2  14:08:33  -0.65  -0.99  -100.951881            +0.0,+0.0,+0.0
iter:   3  14:08:39  -0.08  -1.00   -97.147955            +0.0,+0.0,+0.0
iter:   4  14:08:44  -0.60  -1.35   -97.337446            +0.0,-0.0,+0.0
iter:   5  14:08:49  -1.12  -1.37   -97.423473            +0.0,-0.0,+0.0
iter:   6  14:08:54  -0.38  -1.38   -98.574695            +0.0,-0.0,+0.0
iter:   7  14:08:59  -1.08  -1.54   -97.143895            +0.0,-0.0,+0.0
iter:   8  14:09:04  -2.27  -1.84   -97.265955            +0.0,-0.0,+0.0
iter:   9  14:09:09  -1.38  -1.79   -97.147291            +0.0,-0.0,+0.0
iter:  10  14:09:14  -0.60  -1.83   -97.355067            +0.0,-0.0,+0.0
iter:  11  14:09:19  -1.57  -1.72   -96.852646            +0.0,-0.0,+0.0
iter:  12  14:09:24  -2.69  -2.33   -96.854920            +0.0,-0.0,+0.0
iter:  13  14:09:29  -2.06  -2.41   -96.857494            +0.0,-0.0,+0.0
iter:  14  14:09:34  -2.76  -2.52   -96.858187            +0.0,-0.0,+0.0
iter:  15  14:09:39  -3.18  -2.53   -96.859654            +0.0,-0.0,+0.0
iter:  16  14:09:45  -2.70  -2.45   -96.875756            +0.0,-0.0,+0.0
iter:  17  14:09:50  -3.13  -2.27   -96.873918            +0.0,-0.0,+0.0
iter:  18  14:09:55  -3.32  -2.38   -96.877044            +0.0,-0.0,+0.0
iter:  19  14:10:00  -2.78  -2.29   -96.878626            +0.0,-0.0,+0.0
iter:  20  14:10:05  -2.80  -2.37   -96.861219            +0.0,-0.0,+0.0
iter:  21  14:10:10  -3.10  -2.53   -96.871311            +0.0,-0.0,+0.0
iter:  22  14:10:15  -2.98  -2.44   -96.874767            +0.0,-0.0,+0.0
iter:  23  14:10:20  -2.30  -2.42   -96.853948            +0.0,-0.0,+0.0
iter:  24  14:10:25  -3.05  -2.85   -96.852360            +0.0,-0.0,+0.0
iter:  25  14:10:31  -3.81  -3.01   -96.851664            +0.0,-0.0,+0.0
iter:  26  14:10:36  -4.39  -3.22   -96.851554            +0.0,+0.0,+0.0
iter:  27  14:10:41  -4.69  -3.34   -96.851685            +0.0,+0.0,+0.0
iter:  28  14:10:46  -4.77  -3.35   -96.851671            +0.0,+0.0,+0.0
iter:  29  14:10:51  -4.02  -3.37   -96.851890            +0.0,+0.0,+0.0
iter:  30  14:10:56  -4.53  -3.20   -96.851658            +0.0,+0.0,+0.0
iter:  31  14:11:01  -4.03  -3.29   -96.851666            +0.0,+0.0,+0.0
iter:  32  14:11:06  -4.57  -3.31   -96.851509            +0.0,+0.0,+0.0
iter:  33  14:11:12  -4.62  -3.37   -96.851489            +0.0,+0.0,+0.0
iter:  34  14:11:17  -4.89  -3.39   -96.851510            +0.0,+0.0,+0.0
iter:  35  14:11:22  -4.98  -3.41   -96.851538            +0.0,+0.0,+0.0
iter:  36  14:11:27  -4.95  -3.44   -96.851612            +0.0,+0.0,+0.0
iter:  37  14:11:32  -5.46  -3.44   -96.851599            +0.0,+0.0,+0.0
iter:  38  14:11:37  -5.50  -3.45   -96.851548            +0.0,-0.0,+0.0
iter:  39  14:11:42  -5.34  -3.50   -96.851592            +0.0,-0.0,+0.0
iter:  40  14:11:47  -5.43  -3.51   -96.851590            +0.0,-0.0,+0.0
iter:  41  14:11:52  -5.25  -3.50   -96.851658            +0.0,-0.0,+0.0
iter:  42  14:11:58  -5.16  -3.43   -96.851629            +0.0,-0.0,+0.0
iter:  43  14:12:03  -5.11  -3.45   -96.851551            +0.0,-0.0,+0.0
iter:  44  14:12:08  -5.17  -3.56   -96.851560            +0.0,-0.0,+0.0
iter:  45  14:12:13  -5.37  -3.57   -96.851572            +0.0,-0.0,+0.0
iter:  46  14:12:18  -5.51  -3.56   -96.851575            +0.0,-0.0,+0.0
iter:  47  14:12:23  -4.82  -3.56   -96.851558            +0.0,-0.0,+0.0
iter:  48  14:12:28  -5.76  -3.65   -96.851527            +0.0,-0.0,+0.0
iter:  49  14:12:33  -5.79  -3.73   -96.851521            +0.0,-0.0,+0.0
iter:  50  14:12:38  -5.71  -3.77   -96.851500            +0.0,-0.0,+0.0
iter:  51  14:12:43  -5.82  -3.92   -96.851495            +0.0,-0.0,+0.0
iter:  52  14:12:48  -6.44  -4.03   -96.851495            +0.0,-0.0,+0.0
iter:  53  14:12:53  -6.26  -4.10   -96.851498            +0.0,-0.0,+0.0
iter:  54  14:12:58  -6.42  -4.10   -96.851494            +0.0,-0.0,+0.0
iter:  55  14:13:03  -5.93  -4.16   -96.851494            +0.0,-0.0,+0.0
iter:  56  14:13:09  -6.30  -4.19   -96.851495            +0.0,-0.0,+0.0
iter:  57  14:13:14  -6.90  -4.31   -96.851494            +0.0,-0.0,+0.0
iter:  58  14:13:19  -7.20  -4.40   -96.851494            +0.0,-0.0,+0.0
iter:  59  14:13:24  -6.75  -4.47   -96.851493            +0.0,-0.0,+0.0
iter:  60  14:13:29  -6.64  -4.53   -96.851493            +0.0,-0.0,+0.0
[...]
iter: 147  14:20:50 -12.52  -8.54   -96.851493            +0.0,-0.0,+0.0
iter: 148  14:20:55 -12.36  -8.55   -96.851493            +0.0,-0.0,+0.0
iter: 149  14:21:00 -11.12  -8.59   -96.851493            +0.0,-0.0,+0.0
iter: 150  14:21:05 -11.87  -8.63   -96.851493            +0.0,-0.0,+0.0
iter: 151  14:21:10 -12.09  -8.61   -96.851493            +0.0,-0.0,+0.0
iter: 152  14:21:15 -11.73  -8.59   -96.851493            +0.0,-0.0,+0.0
iter: 153  14:21:20 -11.29  -8.49   -96.851493            +0.0,-0.0,+0.0
iter: 154  14:21:25 -11.77  -8.42   -96.851493            +0.0,-0.0,+0.0
iter: 155  14:21:30 -12.49  -8.44   -96.851493            +0.0,-0.0,+0.0
iter: 156  14:21:35 -12.03  -8.43   -96.851493            +0.0,-0.0,+0.0
iter: 157  14:21:40 -11.13  -8.55   -96.851493            +0.0,-0.0,+0.0
iter: 158  14:21:45 -11.71  -8.63   -96.851493            +0.0,-0.0,+0.0
iter: 159  14:21:50 -12.14  -8.74   -96.851493            +0.0,-0.0,+0.0
iter: 160  14:21:55 -12.46  -8.84   -96.851493            +0.0,-0.0,+0.0
iter: 161  14:22:00 -12.89  -9.01   -96.851493            +0.0,-0.0,+0.0

Converged after 161 iterations.

Dipole moment: (0.000075, 0.000062, -0.010490) |e|*Ang

Total magnetic moment: (0.000000, -0.000001, 0.000085)
Local magnetic moments:
   0 O  (-0.000015,  0.000035, -0.000202)
   1 O  ( 0.000015,  0.000035, -0.000204)
   2 O  ( 0.000034, -0.000003, -0.000043)
   3 O  (-0.000034, -0.000003, -0.000043)
   4 Cr (-0.000081, -0.000173,  2.208901)
   5 Cr (-0.000081,  0.000173, -2.208652)
   6 Cr ( 0.000081,  0.000173, -2.208649)
   7 Cr ( 0.000082, -0.000174,  2.208902)
   8 O  (-0.000020, -0.000032,  0.000120)
   9 O  ( 0.000020, -0.000032,  0.000121)

Energy contributions relative to reference atoms: (reference = -126274.181857)

Kinetic:        +34.284516
Potential:      -53.918918
External:        +0.000000
XC:             -78.951212
Entropy (-ST):   -0.000000
Local:           +1.734120
Free energy:    -96.851493
Extrapolated:   -96.851493

Showing only first 2 kpts
 Kpt  Band  Eigenvalues  Occupancy
  0    28      2.74933    1.00000
  0    29      2.75123    1.00000
  0    30      2.96458    1.00000
  0    31      2.96684    1.00000

  1    28      2.89601    1.00000
  1    29      2.90105    1.00000
  1    30      2.94016    1.00000
  1    31      2.94192    1.00000

Fermi level: 9.07605

Gap: 0.829 eV
Transition (v -> c):
  (s=0, k=63, n=59, [0.12, 0.12, 0.08]) -> (s=0, k=63, n=60, [0.12, 0.12, 0.08])
Timing:                              incl.     excl.
Hamiltonian:                         0.333     0.002   0.0% |
 Atomic:                             0.120     0.120   0.0% |
  XC Correction:                     0.000     0.000   0.0% |
 Calculate atomic Hamiltonians:      0.025     0.025   0.0% |
 Communicate:                        0.000     0.000   0.0% |
 Initialize Hamiltonian:             0.000     0.000   0.0% |
 Poisson:                            0.001     0.001   0.0% |
 XC 3D grid:                         0.184     0.184   0.0% |
LCAO initialization:                27.635     0.141   0.0% |
 LCAO eigensolver:                  11.611     0.001   0.0% |
  DenseAtomicCorrection:             0.004     0.004   0.0% |
  Distribute overlap matrix:         0.000     0.000   0.0% |
  Orbital Layouts:                   0.010     0.010   0.0% |
  Potential matrix:                 11.568    11.568   1.4% ||
  Sum over cells:                    0.028     0.028   0.0% |
 LCAO to grid:                      15.364    15.364   1.8% ||
 Set positions (LCAO WFS):           0.518     0.113   0.0% |
  Basic WFS set positions:           0.000     0.000   0.0% |
  Basis functions set positions:     0.000     0.000   0.0% |
  P tci:                             0.156     0.156   0.0% |
  ST tci:                            0.162     0.162   0.0% |
  mktci:                             0.087     0.087   0.0% |
PWDescriptor:                        0.007     0.007   0.0% |
SCF-cycle:                         825.299   225.128  26.4% |----------|
 Davidson:                         439.473    31.317   3.7% ||
  Apply H:                          89.959    89.959  10.5% |---|
  Subspace diag:                   102.254     0.057   0.0% |
   calc_h_matrix:                   95.157     4.294   0.5% |
    Apply H:                        90.863    90.863  10.6% |---|
   diagonalize:                      0.898     0.898   0.1% |
   rotate_psi:                       6.142     6.142   0.7% |
  calc. matrices:                  198.196    23.757   2.8% ||
   Apply H:                        174.439   174.439  20.4% |-------|
  diagonalize:                       6.862     6.862   0.8% |
  rotate_psi:                       10.885    10.885   1.3% ||
 Density:                          107.934     0.005   0.0% |
  Atomic density matrices:           4.633     4.633   0.5% |
  Mix:                              11.284    11.284   1.3% ||
  Multipole moments:                 0.050     0.050   0.0% |
  Pseudo density:                   91.963    91.956  10.8% |---|
   Symmetrize density:               0.006     0.006   0.0% |
 Hamiltonian:                       52.699     0.521   0.1% |
  Atomic:                           13.183    13.182   1.5% ||
   XC Correction:                    0.001     0.001   0.0% |
  Calculate atomic Hamiltonians:     4.749     4.749   0.6% |
  Communicate:                       0.033     0.033   0.0% |
  Poisson:                           0.163     0.163   0.0% |
  XC 3D grid:                       34.050    34.050   4.0% |-|
 Orthonormalize:                     0.066     0.000   0.0% |
  calc_s_matrix:                     0.015     0.015   0.0% |
  inverse-cholesky:                  0.001     0.001   0.0% |
  projections:                       0.030     0.030   0.0% |
  rotate_psi_s:                      0.019     0.019   0.0% |
Set symmetry:                        0.000     0.000   0.0% |
Other:                               0.775     0.775   0.1% |
Total:                                       854.049 100.0%